! Created with skrf 2.1.0 (http://scikit-rf.org).
# Hz S RI R 50.0 
!freq ReS11 ImS11 ReS12 ImS12 ReS13 ImS13
! ReS14 ImS14
! ReS21 ImS21 ReS22 ImS22 ReS23 ImS23
! ReS24 ImS24
! ReS31 ImS31 ReS32 ImS32 ReS33 ImS33
! ReS34 ImS34
! ReS41 ImS41 ReS42 ImS42 ReS43 ImS43
! ReS44 ImS44
!
10000000.0 0.8757739739264326 0.025992198249190048 0.9377584006665207 0.013406423429799636 -0.00015436637582913042 -0.0002603600385422133 -0.00018262611041711463 -0.00030182804112450286
 0.9377584006665207 0.013406423429799636 0.8757739739264326 0.025992198249190048 -0.00015436637582913042 -0.0002603600385422133 -0.00017494408240447342 -0.00027282715488543066
 -0.00015436637582913042 -0.0002603600385422133 -0.00015436637582913042 -0.0002603600385422133 0.8451955496576259 0.03157730526239066 0.922269917028325 0.01631756327186772
 -0.00015494435280041373 -0.00024689391403340494 -0.00017494408240447342 -0.00027282715488543066 0.922269917028325 0.01631756327186772 0.8451955496576259 0.03157730526239066
11000000.0 0.8748647661001571 0.023920798290145904 0.9372765942629606 0.01230849153934708 -0.0001425426104066616 -0.00023661324528208546 -0.00016918207039552465 -0.000274200918711639
 0.9372765942629606 0.01230849153934708 0.8748647661001571 0.023920798290145904 -0.0001425426104066616 -0.00023661324528208546 -0.0001627826629534254 -0.0002477277482391488
 -0.0001425426104066616 -0.00023661324528208546 -0.0001425426104066616 -0.00023661324528208546 0.8441222275357237 0.02906722078229188 0.9217027583250827 0.014990164302029842
 -0.00014366390280459363 -0.00022418896306627688 -0.0001627826629534254 -0.0002477277482391488 0.9217027583250827 0.014990164302029842 0.8441222275357237 0.02906722078229188
12000000.0 0.8742173787486893 0.022135921840327706 0.9369309380685611 0.011360498426748676 -0.00013333649733952849 -0.00021600301393247004 -0.00015872900304713343 -0.0002502472935519521
 0.9369309380685611 0.011360498426748676 0.8742173787486893 0.022135921840327706 -0.00013333649733952849 -0.00021600301393247004 -0.00015333230370732202 -0.0002259544349309488
 -0.00013333649733952849 -0.00021600301393247004 -0.00013333649733952849 -0.00021600301393247004 0.8433620830639051 0.026907879197703034 0.9212985932051918 0.01384624192111488
 -0.0001348734424912195 -0.00020447069921340674 -0.00015333230370732202 -0.0002259544349309488 0.9212985932051918 0.01384624192111488 0.8433620830639051 0.026907879197703034
13000000.0 0.8737640151133556 0.02058278677431585 0.9366860337272503 0.010533852022875333 -0.00012602499379649036 -0.00019794794782706187 -0.00015043890815840747 -0.00022927876514582934
 0.9366860337272503 0.010533852022875333 0.8737640151133556 0.02058278677431585 -0.00012602499379649036 -0.00019794794782706187 -0.00014584272534446695 -0.0002068833839348717
 -0.00012602499379649036 -0.00019794794782706187 -0.00012602499379649036 -0.00019794794782706187 0.8428339826904341 0.025031507160462325 0.9210150609739203 0.012850422183165266
 -0.00012788461208519658 -0.0001871856392698156 -0.00014584272534446695 -0.0002068833839348717 0.9210150609739203 0.012850422183165266 0.8428339826904341 0.025031507160462325
14000000.0 0.8734582664977982 0.019218171936344605 0.9365176553180832 0.009805998005476579 -0.0001201143472954789 -0.0001819902856805461 -0.00014374712823239232 -0.00021075571333773155
 0.9365176553180832 0.009805998005476579 0.8734582664977982 0.019218171936344605 -0.0001201143472954789 -0.0001819902856805461 -0.0001398022238576407 -0.0001900255643781764
 -0.0001201143472954789 -0.0001819902856805461 -0.0001201143472954789 -0.0001819902856805461 0.8424824628224661 0.023384868585994152 0.9208232088271711 0.011974922843402904
 -0.00012222735083069165 -0.0001718980069244595 -0.0001398022238576407 -0.0001900255643781764 0.9208232088271711 0.011974922843402904 0.8424824628224661 0.023384868585994152
15000000.0 0.8732675387301635 0.018007878805348244 0.9364087934434694 0.009159093917492138 -0.00011525896313829716 -0.0001677687038398341 -0.00013825884182795082 -0.00019425355407565265
 0.9364087934434694 0.009159093917492138 0.8732675387301635 0.018007878805348244 -0.00011525896313829716 -0.0001677687038398341 -0.00013485295573710217 -0.000174996174292454
 -0.00011525896313829716 -0.0001677687038398341 -0.00011525896313829716 -0.0001677687038398341 0.84226860832282 0.021925973507139436 0.9207027277927002 0.011197834405937452
 -0.0001175726539703224 -0.00015826383885783973 -0.00013485295573710217 -0.000174996174292454 0.9207027277927002 0.011197834405937452 0.84226860832282 0.021925973507139436
16000000.0 0.8731683969996882 0.016924673107396142 0.9363472236557301 0.008578933979202997 -0.00011121152933481035 -0.00015499626032584423 -0.00013369172055557594 -0.00017943590877166348
 0.9363472236557301 0.008578933979202997 0.8731683969996882 0.016924673107396142 -0.00011121152933481035 -0.00015499626032584423 -0.00013073898680417194 -0.00016149033291886777
 -0.00011121152933481035 -0.00015499626032584423 -0.00011121152933481035 -0.00015499626032584423 0.8421644594131574 0.02062146132956106 0.9206390314920271 0.01050175340438491
 -0.00011368508867158995 -0.00014600998613158912 -0.00013073898680417194 -0.00016149033291886777 0.9206390314920271 0.01050175340438491 0.8421644594131574 0.02062146132956106
17000000.0 0.8731436252124588 0.01594669203241877 0.9363239704184654 0.008054117102457499 -0.0001077915049100142 -0.00014344332706546395 -0.0001298397679366061 -0.00016603407889293932
 0.9363239704184654 0.008054117102457499 0.8731436252124588 0.01594669203241877 -0.0001077915049100142 -0.00014344332706546395 -0.00012727353145345987 -0.00014926448539361574
 -0.0001077915049100142 -0.00014344332706546395 -0.0001077915049100142 -0.00014344332706546395 0.8421494852571514 0.019444599129534237 0.9206214142901299 0.009872736913320843
 -0.00011039279296068794 -0.00013491786463370393 -0.00012727353145345987 -0.00014926448539361574 0.9206214142901299 0.009872736913320843 0.8421494852571514 0.019444599129534237
18000000.0 0.873180321106524 0.015056233561473094 0.9363323120697638 0.007575414496234053 -0.00010486470166361513 -0.000132924616045559 -0.00012654992430485653 -0.0001538315612498455
 0.9363323120697638 0.007575414496234053 0.873180321106524 0.015056233561473094 -0.00010486470166361513 -0.000132924616045559 -0.00012431775771564704 -0.0001381223741682957
 -0.00010486470166361513 -0.000132924616045559 -0.00010486470166361513 -0.000132924616045559 0.8422083031131566 0.01837377161693818 0.920641859982184 0.009299513852941244
 -0.00010756803626721342 -0.00012481110318416814 -0.00012431775771564704 -0.0001381223741682957 0.920641859982184 0.009299513852941244 0.8422083031131566 0.01837377161693818
19000000.0 0.8732686336487623 0.014238840693578284 0.9363671212644598 0.007135291311005203 -0.0001023297450426138 -0.00012328936529590933 -0.00012370657313693877 -0.00014265239713405947
 0.9363671212644598 0.007135291311005203 0.8732686336487623 0.014238840693578284 -0.0001023297450426138 -0.00012328936529590933 -0.00012176675088328399 -0.00012790448378312207
 -0.0001023297450426138 -0.00012328936529590933 -0.0001023297450426138 -0.00012328936529590933 0.842329168423254 0.017391345015668625 0.9206942531254781 0.008772891589396852
 -0.00010511432928380213 -0.00011554619998993133 -0.00012176675088328399 -0.00012790448378312207 0.9206942531254781 0.008772891589396852 0.842329168423254 0.017391345015668625
20000000.0 0.8734009084700409 0.013482607633899394 0.9364244185445922 0.006727544224416464 -0.00010010890530557035 -0.00011441390346964876 -0.00012122105948410805 -0.00013235238033386328
 0.9364244185445922 0.006727544224416464 0.8734009084700409 0.013482607633899394 -0.00010010890530557035 -0.00011441390346964876 -0.00011954001801660199 -0.00011848007568519054
 -0.00010010890530557035 -0.00011441390346964876 -0.00010010890530557035 -0.00011441390346964876 0.8425029539266845 0.01648280973790209 0.920773845779415 0.008285308149451281
 -0.00010295769459734489 -0.0001070054436713795 -0.00011954001801660199 -0.00011848007568519054 0.920773845779415 0.008285308149451281 0.8425029539266845 0.01648280973790209
21000000.0 0.8735710983653174 0.012777651540232896 0.9365010643599305 0.006347025507468005 -9.814176772686867e-05 -0.00010619598888446517 -0.00011902446027409297 -0.00012281238390479646
 0.9365010643599305 0.006347025507468005 0.8735710983653174 0.012777651540232896 -9.814176772686867e-05 -0.00010619598888446517 -0.00011757493858697162 -0.00010974114255524062
 -9.814176772686867e-05 -0.00010619598888446517 -9.814176772686867e-05 -0.00010619598888446517 0.8427224460474267 0.01563612964318829 0.9208768899519912 0.00783049233592258
 -0.00010104064025167201 -9.909152368682095e-05 -0.00011757493858697162 -0.00010974114255524062 0.9208768899519912 0.00783049233592258 0.8427224460474267 0.01563612964318829
22000000.0 0.873774349542781 0.012115707622173495 0.9365945428870345 0.005989431526026039 -9.638078529783535e-05 -9.855047094398239e-05 -0.00011706250857435626 -0.00011393325824217133
 0.9365945428870345 0.005989431526026039 0.873774349542781 0.012115707622173495 -9.638078529783535e-05 -9.855047094398239e-05 -0.00011582216656863423 -0.00010159778616077191
 -9.638078529783535e-05 -9.855047094398239e-05 -9.638078529783535e-05 -9.855047094398239e-05 0.8429818514263717 0.014841244472262892 0.9210003798013476 0.0074032038486617855
 -9.931792555756413e-05 -9.172339974777521e-05 -0.00011582216656863423 -0.00010159778616077191 0.9210003798013476 0.0074032038486617855 0.8429818514263717 0.014841244472262892
23000000.0 0.874006706612693 0.011489816432909345 0.9367028078698356 0.0056511394018145845 -9.478810340454567e-05 -9.140594015679415e-05 -0.00011529197195897175 -0.00010563189946427068
 0.9367028078698356 0.0056511394018145845 0.874006706612693 0.011489816432909345 -9.478810340454567e-05 -9.140594015679415e-05 -0.00011424234991640311 -9.397465544595392e-05
 -9.478810340454567e-05 -9.140594015679415e-05 -9.478810340454567e-05 -9.140594015679415e-05 0.8432764453053158 0.014089686336160178 0.9211418679247125 0.006999032979555065
 -9.775353789994945e-05 -8.483311244443327e-05 -0.00011424234991640311 -9.397465544595392e-05 0.9211418679247125 0.006999032979555065 0.8432764453053158 0.014089686336160178
24000000.0 0.8742648991961592 0.010894080436795319 0.9368241710935343 0.005329079862678499 -9.333325898905555e-05 -8.470212125399215e-05 -0.00011367802980853805 -9.783819488572288e-05
 0.9368241710935343 0.005329079862678499 0.8742648991961592 0.010894080436795319 -9.333325898905555e-05 -8.470212125399215e-05 -0.00011280375504952651 -8.680817920736784e-05
 -9.333325898905555e-05 -8.470212125399215e-05 -9.333325898905555e-05 -8.470212125399215e-05 0.8436023173438034 0.01337428165680728 0.9212993325358951 0.006614244942101063
 -9.631850210613127e-05 -7.836330135151756e-05 -0.00011280375504952651 -8.680817920736784e-05 0.9212993325358951 0.006614244942101063 0.8436023173438034 0.01337428165680728
25000000.0 0.8745461855356226 0.010323472976803773 0.936957220633446 0.0050206374671793 -9.1991490595742e-05 -7.838782860245524e-05 -0.0001121923479713232 -9.04926305889122e-05
 0.936957220633446 0.0050206374671793 0.8745461855356226 0.010323472976803773 -9.1991490595742e-05 -7.838782860245524e-05 -0.00011148052311989588 -8.004439857839415e-05
 -9.1991490595742e-05 -7.838782860245524e-05 -9.1991490595742e-05 -7.838782860245524e-05 0.8439561854365553 0.012688917588481398 0.9214710801597419 0.006245657882792894
 -9.498927141463574e-05 -7.226525847948972e-05 -0.00011148052311989588 -8.004439857839415e-05 0.9214710801597419 0.006245657882792894 0.8439561854365553 0.012688917588481398
26000000.0 0.8748482364995827 0.009773687163156705 0.9371007602046013 0.004723571685359847 -9.074248149844429e-05 -7.241935020254856e-05 -0.00011081164752650746 -8.354440265199742e-05
 0.9371007602046013 0.004723571685359847 0.8748482364995827 0.009773687163156705 -9.074248149844429e-05 -7.241935020254856e-05 -0.00011025137391258395 -7.363725577922664e-05
 -9.074248149844429e-05 -7.241935020254856e-05 -9.074248149844429e-05 -7.241935020254856e-05 0.8443352576919472 0.012028357467604467 0.9216556734820537 0.005890546503484117
 -9.374653076511741e-05 -6.649738976975602e-05 -0.00011025137391258395 -7.363725577922664e-05 0.9216556734820537 0.005890546503484117 0.8443352576919472 0.012028357467604467
27000000.0 0.8751690485998745 0.009241015403042962 0.9372537636674774 0.004435953988168178 -8.956941406956838e-05 -6.675916081347638e-05 -0.00010951662846237871 -7.69499145140264e-05
 0.9372537636674774 0.004435953988168178 0.8751690485998745 0.009241015403042962 -8.956941406956838e-05 -6.675916081347638e-05 -0.00010909863127503819 -6.754723266421326e-05
 -8.956941406956838e-05 -6.675916081347638e-05 -8.956941406956838e-05 -6.675916081347638e-05 0.8447371289840531 0.011388093831502234 0.9218518772587565 0.005546565309457267
 -9.257429641210379e-05 -6.1023989944854337e-05 -0.00010909863127503819 -6.754723266421326e-05 0.9218518772587565 0.005546565309457267 0.8447371289840531 0.011388093831502234
28000000.0 0.8755068781062075 0.008722252624595988 0.9374153405557359 0.004156117316786336 -8.845825067229168e-05 -6.13748897363237e-05 -0.00010829115154483034 -7.067157268653065e-05
 0.9374153405557359 0.004156117316786336 0.8755068781062075 0.008722252624595988 -8.845825067229168e-05 -6.13748897363237e-05 -0.00010800748244182203 -6.174025953224394e-05
 -8.845825067229168e-05 -6.13748897363237e-05 -8.845825067229168e-05 -6.13748897363237e-05 0.8451597026344652 0.010764230447755502 0.9220586173522809 0.005211687013033151
 -9.145923120568594e-05 -5.5814259813462165e-05 -0.00010800748244182203 -6.174025953224394e-05 0.9220586173522809 0.005211687013033151 0.8451597026344652 0.010764230447755502
29000000.0 0.8758601906779084 0.008214617958454538 0.9375847097116157 0.003882615196303943 -8.739718136160013e-05 -5.623848709874558e-05 -0.00010712161023483857 -6.467681473940375e-05
 0.9375847097116157 0.003882615196303943 0.8758601906779084 0.008214617958454538 -8.739718136160013e-05 -5.623848709874558e-05 -0.00010696540951805743 -5.6186834342526173e-05
 -8.739718136160013e-05 -5.623848709874558e-05 -8.739718136160013e-05 -5.623848709874558e-05 0.8456011305697191 0.010153386915118669 0.9222749494200025 0.004884152729460826
 -9.039011868804651e-05 -5.0841512565964136e-05 -0.00010696540951805743 -5.6186834342526173e-05 0.9222749494200025 0.004884152729460826 0.8456011305697191 0.010153386915118669
30000000.0 0.8762276225289592 0.007715690901144553 0.9377611789482448 0.003614188416805774 -8.637619576822132e-05 -5.1325545988179175e-05 -0.00010599644403564723 -5.893731945898062e-05
 0.9377611789482448 0.003614188416805774 0.8762276225289592 0.007715690901144553 -8.637619576822132e-05 -5.1325545988179175e-05 -0.00010596174907165855 -5.086130694682748e-05
 -8.637619576822132e-05 -5.1325545988179175e-05 -8.637619576822132e-05 -5.1325545988179175e-05 0.8460597672056682 0.009552620955394442 0.9225000347748377 0.00456243141569801
 -8.93574554237501e-05 -4.608252845186672e-05 -0.00010596174907165855 -5.086130694682748e-05 0.9225000347748377 0.00456243141569801 0.8460597672056682 0.009552620955394442
31000000.0 0.8766079502482498 0.007223358920291901 0.9379441292357764 0.0033497376936851286 -8.538674837624414e-05 -4.661474780174235e-05 -0.00010490575816557871 -5.3428360902028325e-05
 0.9379441292357764 0.0033497376936851286 0.8766079502482498 0.007223358920291901 -8.538674837624414e-05 -4.661474780174235e-05 -0.00010498734802925466 -4.5741293663280286e-05
 -8.538674837624414e-05 -4.661474780174235e-05 -8.538674837624414e-05 -4.661474780174235e-05 0.8465341336296147 0.008959364669629674 0.9227331216271277 0.004245186605457463
 -8.835313225092847e-05 -4.151702677118706e-05 -0.00010498734802925466 -4.5741293663280286e-05 0.9227331216271277 0.004245186605457463 0.8465341336296147 0.008959364669629674
32000000.0 0.8770000671728684 0.006735774160898968 0.9381330023134273 0.003088301084248843 -8.442149470821948e-05 -4.2087405669629716e-05 -0.00010384102392824163 -4.812827688970997e-05
 0.9381330023134273 0.003088301084248843 0.8770000671728684 0.006735774160898968 -8.442149470821948e-05 -4.2087405669629716e-05 -0.00010403429265593756 -4.080719550795877e-05
 -8.442149470821948e-05 -4.2087405669629716e-05 -8.442149470821948e-05 -4.2087405669629716e-05 0.8470228895763482 0.008371371892652926 0.9229735304002342 0.003931248943329284
 -8.737018304538531e-05 -3.712723124156602e-05 -0.00010403429265593756 -4.080719550795877e-05 0.9229735304002342 0.003931248943329284 0.8470228895763482 0.008371371892652926
33000000.0 0.8774029647631532 0.006251317438065424 0.9383272909172515 0.0028290352124653462 -8.347408182491756e-05 -3.772708644406981e-05 -0.00010279484087491492 -4.3018029112179085e-05
 0.9383272909172515 0.0028290352124653462 0.8774029647631532 0.006251317438065424 -8.347408182491756e-05 -3.772708644406981e-05 -0.00010309569349018294 -3.6041799404017506e-05
 -8.347408182491756e-05 -3.772708644406981e-05 -8.347408182491756e-05 -3.772708644406981e-05 0.8475248113509697 0.0077866744265193645 0.9232206421552418 0.0036195933585139407
 -8.64025852004412e-05 -3.289751016794659e-05 -0.00010309569349018294 -3.6041799404017506e-05 0.9232206421552418 0.0036195933585139407 0.8475248113509697 0.0077866744265193645
34000000.0 0.8778157178237627 0.005768568100129867 0.938526531020053 0.002571199561927636 -8.253898077655757e-05 -3.351929601608132e-05 -0.00010176074667713026 -3.8080837028757884e-05
 0.938526531020053 0.002571199561927636 0.8778157178237627 0.005768568100129867 -8.253898077655757e-05 -3.351929601608132e-05 -0.00010216551347532177 -3.1429946231018277e-05
 -8.253898077655757e-05 -3.351929601608132e-05 -8.253898077655757e-05 -3.351929601608132e-05 0.8480387743227318 0.007203545422581138 0.9234738894062812 0.0033093199741439237
 -8.544510005215762e-05 -2.88140769071155e-05 -0.00010216551347532177 -3.1429946231018277e-05 0.9234738894062812 0.0033093199741439237 0.8480387743227318 0.007203545422581138
35000000.0 0.8782374727020258 0.005286278650269092 0.938730295629698 0.0023141432559253667 -8.161135170965892e-05 -2.945121598025419e-05 -0.0001007330641241232 -3.330187156968964e-05
 0.938730295629698 0.0023141432559253667 0.8782374727020258 0.005286278650269092 -8.161135170965892e-05 -2.945121598025419e-05 -0.00010123842969710481 -2.695825303881794e-05
 -8.161135170965892e-05 -2.945121598025419e-05 -8.161135170965892e-05 -2.945121598025419e-05 0.8485637389560082 0.006620468554568298 0.9237327487865477 0.0029996380428623723
 -8.449314439981817e-05 -2.4864739221211076e-05 -0.00010123842969710481 -2.695825303881794e-05 0.9237327487865477 0.0029996380428623723 0.8485637389560082 0.006620468554568298
36000000.0 0.8786674378051208 0.004803353248053767 0.9389381898019223 0.00205729386545549 -8.068693457999273e-05 -2.551148217020483e-05 -9.970677721979911e-05 -2.8667997577156997e-05
 0.9389381898019223 0.00205729386545549 0.8786674378051208 0.004803353248053767 -8.068693457999273e-05 -2.551148217020483e-05 -0.00010030972145642659 -2.261487940638631e-05
 -8.068693457999273e-05 -2.551148217020483e-05 -8.068693457999273e-05 -2.551148217020483e-05 0.8490987395949441 0.006036111910907642 0.9239967351558506 0.0026898523485507195
 -8.354268641013837e-05 -2.103868849676438e-05 -0.00010030972145642659 -2.261487940638631e-05 0.9239967351558506 0.0026898523485507195 0.8490987395949441 0.006036111910907642
37000000.0 0.8791048759331871 0.004318829392850116 0.9391498466049386 0.001800147880266988 -7.976196008244692e-05 -2.168999752195315e-05 -9.86774302455176e-05 -2.4167556187551694e-05
 0.9391498466049386 0.001800147880266988 0.8791048759331871 0.004318829392850116 -7.976196008244692e-05 -2.168999752195315e-05 -9.937517912031042e-05 -1.8389329977245526e-05
 -7.976196008244692e-05 -2.168999752195315e-05 -7.976196008244692e-05 -2.168999752195315e-05 0.8496428754035463 0.005449305755161822 0.9242653968372219 0.0023793516294399932
 -8.259016077437632e-05 -1.732632164770751e-05 -9.937517912031042e-05 -1.8389329977245526e-05 0.9242653968372219 0.0023793516294399932 0.8496428754035463 0.005449305755161822
38000000.0 0.8795490980415382 0.003831862231219092 0.9393649238337599 0.0015422625512662102 -7.88330766465667e-05 -1.7977773227521034e-05 -9.764104506509998e-05 -1.979018011700005e-05
 0.9393649238337599 0.0015422625512662102 0.8795490980415382 0.003831862231219092 -7.88330766465667e-05 -1.7977773227521034e-05 -9.84310294719859e-05 -1.4272286797662018e-05
 -7.88330766465667e-05 -1.7977773227521034e-05 -7.88330766465667e-05 -1.7977773227521034e-05 0.8501953030011293 0.004859023474892303 0.9245383117422706 0.0020675986673099945
 -8.16323991660815e-05 -1.37190899536979e-05 -9.84310294719859e-05 -1.4272286797662018e-05 0.9245383117422706 0.0020675986673099945 0.8501953030011293 0.004859023474892303
39000000.0 0.8799994581324782 0.003341711040146778 0.9395831013177481 0.001283248869958182 -7.789729027719177e-05 -1.4366793319051909e-05 -9.65940530083171e-05 -1.5526636188640183e-05
 0.9395831013177481 0.001283248869958182 0.8799994581324782 0.003341711040146778 -7.789729027719177e-05 -1.4366793319051909e-05 -9.747387424128392e-05 -1.0255466330679966e-05
 -7.789729027719177e-05 -1.4366793319051909e-05 -7.789729027719177e-05 -1.4366793319051909e-05 0.8507552304369604 0.004264365173212366 0.9248150841992123 0.0017541217574973313
 -8.066657293322806e-05 -1.0209370206653581e-05 -9.747387424128392e-05 -1.0255466330679966e-05 0.9248150841992123 0.0017541217574973313 0.8507552304369604 0.004264365173212366
40000000.0 0.8804553490434507 0.0028477275242101002 0.9398040786994629 0.0010227654956298181 -7.695191472472556e-05 -1.0849898751164644e-05 -9.553323847196905e-05 -1.1368690523060646e-05
 0.9398040786994629 0.0010227654956298181 0.8804553490434507 0.0028477275242101002 -7.695191472472556e-05 -1.0849898751164644e-05 -9.650063922411311e-05 -6.331497000053522e-06
 -7.695191472472556e-05 -1.0849898751164644e-05 -7.695191472472556e-05 -1.0849898751164644e-05 0.8513219122267661 0.00366454346256926 0.9250953423386541 0.0014385073294201664
 -7.969014562976437e-05 -6.790354421368276e-06 -9.650063922411311e-05 -6.331497000053522e-06 0.9250953423386541 0.0014385073294201664 0.8513219122267661 0.00366454346256926
41000000.0 0.8809161989488444 0.0023493456329838638 0.9400275735893112 0.0007605134766712208 -7.59945300077714e-05 -7.420687783502873e-06 -9.445569199036426e-05 -7.308992670112056e-06
 0.9400275735893112 0.0007605134766712208 0.8809161989488444 0.0023493456329838638 -7.59945300077714e-05 -7.420687783502873e-06 -9.550853195502423e-05 -2.4938138942449746e-06
 -7.59945300077714e-05 -7.420687783502873e-06 -7.59945300077714e-05 -7.420687783502873e-06 0.8518946452339491 0.0030588711035003046 0.9253787359236236 0.0011203935308044673
 -7.870083350398083e-05 -3.45595506514468e-06 -9.550853195502423e-05 -2.4938138942449746e-06 0.9253787359236236 0.0011203935308044673 0.8518946452339491 0.0030588711035003046
42000000.0 0.8813814684317043 0.001846072659217584 0.940253320020805 0.0004962316407155652 -7.50229477245483e-05 -4.07343004989561e-06 -9.335877099788738e-05 -3.3409756419074767e-06
 0.940253320020805 0.0004962316407155652 0.8813814684317043 0.001846072659217584 -7.50229477245483e-05 -4.07343004989561e-06 -9.449500632360347e-05 1.2634321219719879e-06
 -7.50229477245483e-05 -4.07343004989561e-06 -7.50229477245483e-05 -4.07343004989561e-06 0.8524727652246763 0.0024467501971866933 0.9256649345345348 0.0007994646233182014
 -7.769657245492625e-05 -2.007233178481057e-07 -9.449500632360347e-05 1.2634321219719879e-06 0.9256649345345348 0.0007994646233182014 0.8524727652246763 0.0024467501971866933
43000000.0 0.8818506480117404 0.001337481421589291 0.9404810671469659 0.00022969255094640656 -7.403518190959088e-05 -8.029921681930993e-07 -9.224006687062896e-05 5.412306481074512e-07
 0.9404810671469659 0.00022969255094640656 0.8818506480117404 0.001337481421589291 -7.403518190959088e-05 -8.029921681930993e-07 -9.345773285558768e-05 4.945453147092376e-06
 -7.403518190959088e-05 -8.029921681930993e-07 -7.403518190959088e-05 -8.029921681930993e-07 0.8530556439618483 0.0018276626933813151 0.9259536260384457 0.00047544606488709453
 -7.667549027282756e-05 2.980221680968594e-06 -9.345773285558768e-05 4.945453147092376e-06 0.9259536260384457 0.00047544606488709453 0.8530556439618483 0.0018276626933813151
44000000.0 0.8823232560394977 0.0008232033705963482 0.9407105781306758 -3.930105593802756e-05 -7.302942444147991e-05 2.3952268791194475e-06 -9.10973771176921e-05 4.34287459705427e-06
 0.9407105781306758 -3.930105593802756e-05 0.8823232560394977 0.0008232033705963482 -7.302942444147991e-05 2.3952268791194475e-06 -9.239457363665648e-05 8.556892695696238e-06
 -7.302942444147991e-05 2.3952268791194475e-06 -7.302942444147991e-05 2.3952268791194475e-06 0.8536426867308967 0.0012011620175941813 0.9262445152865938 0.00014810017609705558
 -7.563588321674969e-05 6.091254283176505e-06 -9.239457363665648e-05 8.556892695696238e-06 0.9262445152865938 0.00014810017609705558 0.8536426867308967 0.0012011620175941813
45000000.0 0.882798836884964 0.00030292248412903456 0.940941629191366 -0.000310919419962012 -7.200402420259545e-05 5.525352059587388e-06 -8.992868181493815e-05 8.068648478758283e-06
 0.940941629191366 -0.000310919419962012 0.882798836884964 0.00030292248412903456 -7.200402420259545e-05 5.525352059587388e-06 -9.130356105819363e-05 1.2101885406194486e-05
 -7.200402420259545e-05 5.525352059587388e-06 -7.200402420259545e-05 5.525352059587388e-06 0.8542333302122299 0.000566865655495917 0.926537322995577 -0.00018277769412540062
 -7.457619616860492e-05 9.136295877429923e-06 -9.130356105819363e-05 1.2101885406194486e-05 0.926537322995577 -0.00018277769412540062 0.8542333302122299 0.000566865655495917
46000000.0 0.8832769593633609 -0.00022363015806487743 0.9411740087780149 -0.0005853085543311811 -7.095746934570357e-05 8.5910815201717e-06 -8.873212354893174e-05 1.1722745780358673e-05
 0.9411740087780149 -0.0005853085543311811 0.8832769593633609 -0.00022363015806487743 -7.095746934570357e-05 8.5910815201717e-06 -9.018287972291917e-05 1.558410928530302e-05
 -7.095746934570357e-05 8.5910815201717e-06 -7.095746934570357e-05 8.5910815201717e-06 0.8548270406323951 -7.55514399244095e-05 0.9268317847765596 -0.0005173625739178377
 -7.349500574905642e-05 1.211886168996403e-05 -9.018287972291917e-05 1.558410928530302e-05 0.9268317847765596 -0.0005173625739178377 0.8548270406323951 -7.55514399244095e-05
47000000.0 0.883757215352358 -0.000756681213403111 0.941407516844385 -0.0008625927364790058 -6.988837214402883e-05 1.1595729749725007e-05 -8.750599027744987e-05 1.5308911491730648e-05
 0.941407516844385 -0.0008625927364790058 0.883757215352358 -0.000756681213403111 -6.988837214402883e-05 1.1595729749725007e-05 -8.903085097390275e-05 1.900683155929152e-05
 -6.988837214402883e-05 1.1595729749725007e-05 -6.988837214402883e-05 1.1595729749725007e-05 0.8554233121396493 -0.0007263627305207507 0.9271276502840012 -0.0008558029036369878
 -7.239100589685683e-05 1.5042101810566148e-05 -8.903085097390275e-05 1.900683155929152e-05 0.9271276502840012 -0.0008558029036369878 0.8554233121396493 -0.0007263627305207507
48000000.0 0.8842392185640326 -0.001296419406339731 0.9416419642072127 -0.001142876734227965 -6.879545599847583e-05 1.4542265528308617e-05 -8.62487006232541e-05 1.8830486338633673e-05
 0.9416419642072127 -0.001142876734227965 0.8842392185640326 -0.001296419406339731 -6.879545599847583e-05 1.4542265528308617e-05 -8.78459196104653e-05 2.2372949028767473e-05
 -6.879545599847583e-05 1.4542265528308617e-05 -6.879545599847583e-05 1.4542265528308617e-05 0.8560216653604839 -0.0013857953582759978 0.9274246824610624 -0.0011982232498751009
 -7.126299550551785e-05 1.790883725670594e-05 -8.78459196104653e-05 2.2372949028767473e-05 0.9274246824610624 -0.0011982232498751009 0.8560216653604839 -0.0013857953582759978
49000000.0 0.8847226034421943 -0.0018429994141427257 0.9418771719718463 -0.0014262478011307532 -6.76775442532828e-05 1.743334538176621e-05 -8.495879120609545e-05 2.2290445793202434e-05
 0.9418771719718463 -0.0014262478011307532 0.8847226034421943 -0.0018429994141427257 -6.76775442532828e-05 1.743334538176621e-05 -8.662664243446101e-05 2.5685023681390073e-05
 -6.76775442532828e-05 1.743334538176621e-05 -6.76775442532828e-05 1.743334538176621e-05 0.8566216461022884 -0.002054034872572192 0.9277226568633498 -0.001544726739617167
 -7.010986778510487e-05 2.0721591759935646e-05 -8.662664243446101e-05 2.5685023681390073e-05 0.9277226568633498 -0.001544726739617167 0.8566216461022884 -0.002054034872572192
50000000.0 0.8852070241614999 -0.0023965453635318803 0.942112971012873 -0.0017127774697792712 -6.65335505337846e-05 2.0271343148273152e-05 -8.363490568886483e-05 2.5691434565622035e-05
 0.942112971012873 -0.0017127774697792712 0.8852070241614999 -0.0023965453635318803 -6.65335505337846e-05 2.0271343148273152e-05 -8.537167833471076e-05 2.8945314199470676e-05
 -6.65335505337846e-05 2.0271343148273152e-05 -6.65335505337846e-05 2.0271343148273152e-05 0.857222824174273 -0.002731229486025108 0.9280213610463035 -0.0018953972493903045
 -6.893060107635607e-05 2.3482619852310826e-05 -8.537167833471076e-05 2.8945314199470676e-05 0.9280213610463035 -0.0018953972493903045 0.857222824174273 -0.002731229486025108
51000000.0 0.885692153709468 -0.0029571539847930883 0.9423492014997129 -0.002002523167493338 -6.536247037034137e-05 2.3058376171046666e-05 -8.227578527106765e-05 2.903579717336658e-05
 0.9423492014997129 -0.002002523167493338 0.885692153709468 -0.0029571539847930883 -6.536247037034137e-05 2.3058376171046666e-05 -8.40797796692312e-05 3.2155803902184946e-05
 -6.536247037034137e-05 2.3058376171046666e-05 -6.536247037034137e-05 2.3058376171046666e-05 0.8578247923043087 -0.0034174939153383175 0.9283205940043938 -0.0022503013789695347
 -6.772425089228923e-05 2.6193931742462036e-05 -8.40797796692312e-05 3.2155803902184946e-05 0.9283205940043938 -0.0022503013789695347 0.8578247923043087 -0.0034174939153383175
52000000.0 0.8861776830362503 -0.003524897463088286 0.9425857124591396 -0.0022955296751841063 -6.41633739133373e-05 2.5796328554460136e-05 -8.088026040922401e-05 3.232560509505748e-05
 0.9425857124591396 -0.0022955296751841063 0.8861776830362503 -0.003524897463088286 -6.41633739133373e-05 2.5796328554460136e-05 -8.274978474695007e-05 3.531822558131915e-05
 -6.41633739133373e-05 2.5796328554460136e-05 -6.41633739133373e-05 2.5796328554460136e-05 0.8584271651338469 -0.004112912855258466 0.9286201656526771 -0.0026094902347986587
 -6.648994300135698e-05 2.8857315397675484e-05 -8.274978474695007e-05 3.531822558131915e-05 0.9286201656526771 -0.0026094902347986587 0.8584271651338469 -0.004112912855258466
53000000.0 0.8866633202600654 -0.0040998260209513 0.9428223613682499 -0.002591830447185496 -6.293539957740862e-05 2.8486871856605132e-05 -7.944724358157489e-05 3.5562680941495494e-05
 0.9428223613682499 -0.002591830447185496 0.8866633202600654 -0.0040998260209513 -6.293539957740862e-05 2.8486871856605132e-05 -8.138061124479666e-05 3.843408362209019e-05
 -6.293539957740862e-05 2.8486871856605132e-05 -6.293539957740862e-05 2.8486871856605132e-05 0.8590295782766513 -0.004817544126765219 0.9289198963431102 -0.002973001044649283
 -6.522686739787458e-05 3.1474356187199876e-05 -8.138061124479666e-05 3.843408362209019e-05 0.9289198963431102 -0.002973001044649283 0.8590295782766513 -0.004817544126765219
54000000.0 0.8871487899186318 -0.004681970261191204 0.9430590137727124 -0.002891448807344604 -6.167774848023311e-05 3.113148353759089e-05 -7.797572294533422e-05 3.8748620014068463e-05
 0.9430590137727124 -0.002891448807344604 0.8871487899186318 -0.004681970261191204 -6.167774848023311e-05 3.113148353759089e-05 -7.997125042398756e-05 4.1504673744194164e-05
 -6.167774848023311e-05 3.113148353759089e-05 -6.167774848023311e-05 3.113148353759089e-05 0.8596316874300161 -0.005531421534838484 0.9292196164095716 -0.0033408586220153276
 -6.393427303132569e-05 3.404645439080302e-05 -7.997125042398756e-05 4.1504673744194164e-05 0.9292196164095716 -0.0033408586220153276 0.8596316874300161 -0.005531421534838484
55000000.0 0.8876338322589227 -0.005271343295432174 0.9432955429261453 -0.003194399034561613 -6.038967956350188e-05 3.373146343771855e-05 -7.646475676002631e-05 4.188480956837557e-05
 0.9432955429261453 -0.003194399034561613 0.8876338322589227 -0.005271343295432174 -6.038967956350188e-05 3.373146343771855e-05 -7.852076203220749e-05 4.453110065089966e-05
 -6.038967956350188e-05 3.373146343771855e-05 -6.038967956350188e-05 3.373146343771855e-05 0.860233167529471 -0.0062545574663117 0.9295191657367513 -0.003713076696186531
 -6.261146318737481e-05 3.6574840833600574e-05 -7.852076203220749e-05 4.453110065089966e-05 0.9295191657367513 -0.003713076696186531 0.860233167529471 -0.0062545574663117
56000000.0 0.8881182025591603 -0.00586794268017213 0.943531829447316 -0.003500687349218249 -5.9070505302034524e-05 3.628794852161796e-05 -7.491346847125515e-05 4.4972446056804255e-05
 0.943531829447316 -0.003500687349218249 0.8881182025591603 -0.00586794268017213 -5.9070505302034524e-05 3.628794852161796e-05 -7.702826979719737e-05 4.751429383413425e-05
 -5.9070505302034524e-05 3.628794852161796e-05 -5.9070505302034524e-05 3.628794852161796e-05 0.8608337119398806 -0.006986945254261943 0.92981839334908 -0.004089659121834115
 -6.12577914308904e-05 3.906059087193604e-05 -7.702826979719737e-05 4.751429383413425e-05 0.92981839334908 -0.004089659121834115 0.8608337119398806 -0.006986945254261943
57000000.0 0.888601670478251 -0.00647175217943079 0.9437677609925398 -0.0038103128104531817 -5.7719587922143004e-05 3.880192609226959e-05 -7.332104236642371e-05 4.8012550586523436e-05
 0.9437677609925398 -0.0038103128104531817 0.888601670478251 -0.00647175217943079 -5.7719587922143004e-05 3.880192609226959e-05 -7.549295743276863e-05 5.0455021749826905e-05
 -5.7719587922143004e-05 3.880192609226959e-05 -5.7719587922143004e-05 3.880192609226959e-05 0.8614330316773726 -0.007728561331978709 0.9301171570166644 -0.004470600980135451
 -5.9872658035707425e-05 4.150463692445965e-05 -7.549295743276863e-05 5.0455021749826905e-05 0.9301171570166644 -0.004470600980135451 0.8614330316773726 -0.007728561331978709
58000000.0 0.8890840194289044 -0.007082743370672622 0.9440032319411946 -0.004123268132985695 -5.633633606289226e-05 4.1274245651565155e-05 -7.168671972813015e-05 5.10059827977685e-05
 0.9440032319411946 -0.004123268132985695 0.8890840194289044 -0.007082743370672622 -5.633633606289226e-05 4.1274245651565155e-05 -7.391406509108887e-05 5.33539045492267e-05
 -5.633633606289226e-05 4.1274245651565155e-05 -5.633633606289226e-05 4.1274245651565155e-05 0.8620308546577664 -0.00847936719667183 0.9304153228758477 -0.004855889581962525
 -5.8455506837810554e-05 4.39077797165783e-05 -7.391406509108887e-05 5.33539045492267e-05 0.9304153228758477 -0.004855889581962525 0.8620308546577664 -0.00847936719667183
59000000.0 0.8895650459715116 -0.007700877108674165 0.9442381430927193 -0.004439540431136686 -5.492020182432517e-05 4.370562956087449e-05 -7.000979542276243e-05 5.3953453340442066e-05
 0.9442381430927193 -0.004439540431136686 0.8895650459715116 -0.007700877108674165 -5.492020182432517e-05 4.370562956087449e-05 -7.229088620571648e-05 5.621142552765838e-05
 -5.492020182432517e-05 4.370562956087449e-05 -5.492020182432517e-05 4.370562956087449e-05 0.8626269249681459 -0.009239311200639021 0.9307127650625381 -0.005245505382378154
 -5.700582245855085e-05 4.627069838436555e-05 -7.229088620571648e-05 5.621142552765838e-05 0.9307127650625381 -0.005245505382378154 0.8626269249681459 -0.009239311200639021
60000000.0 0.8900445592265259 -0.008326104860293644 0.9444724013738045 -0.004759111896791348 -5.3470678155397555e-05 4.609668263531291e-05 -6.82896148716293e-05 5.6855535104166107e-05
 0.9444724013738045 -0.004759111896791348 0.8900445592265259 -0.008326104860293644 -5.3470678155397555e-05 4.609668263531291e-05 -7.062276467870222e-05 5.902794143149881e-05
 -5.3470678155397555e-05 4.609668263531291e-05 -5.3470678155397555e-05 4.609668263531291e-05 0.8632210021590341 -0.01000833018553654 0.931009365356863 -0.00563942281458037
 -5.552312785278137e-05 4.8593959565187095e-05 -7.062276467870222e-05 5.902794143149881e-05 0.931009365356863 -0.00563942281458037 0.8632210021590341 -0.01000833018553654
61000000.0 0.8905223803036246 -0.008958369921626984 0.9447059195547939 -0.005081960417269448 -5.198729654162219e-05 4.844790078849972e-05 -6.652557136015516e-05 5.971267333735234e-05
 0.9447059195547939 -0.005081960417269448 0.8905223803036246 -0.008958369921626984 -5.198729654162219e-05 4.844790078849972e-05 -6.890909237244006e-05 6.180369174648459e-05
 -5.198729654162219e-05 4.844790078849972e-05 -5.198729654162219e-05 4.844790078849972e-05 0.8638128605552404 -0.010786350973624528 0.9313050128380527 -0.006037611050522596
 -5.4006982143713306e-05 5.0878025586197565e-05 -6.890909237244006e-05 6.180369174648459e-05 0.9313050128380527 -0.006037611050522596 0.8638128605552404 -0.010786350973624528
62000000.0 0.8909983417463478 -0.009597608527778747 0.9449386159745101 -0.005408060138415296 -5.046962495848916e-05 5.0759678830104534e-05 -6.471710364751628e-05 6.252519477409077e-05
 0.9449386159745101 -0.005408060138415296 0.8909983417463478 -0.009597608527778747 -5.046962495848916e-05 5.0759678830104534e-05 -6.714930687310259e-05 6.453880707531668e-05
 -5.046962495848916e-05 5.0759678830104534e-05 -5.046962495848916e-05 5.0759678830104534e-05 0.8644022885839541 -0.0115732917283406 0.931599603548704 -0.006440034694621642
 -5.245697871208446e-05 5.312326184805752e-05 -6.714930687310259e-05 6.453880707531668e-05 0.931599603548704 -0.006440034694621642 0.8644022885839541 -0.0115732917283406
63000000.0 0.8914722869912503 -0.01024375086439643 0.945170414272931 -0.005737381977649867 -4.8917266061831535e-05 5.3032317506022284e-05 -6.286369384484139e-05 6.529331587324324e-05
 0.945170414272931 -0.005737381977649867 0.8914722869912503 -0.01024375086439643 -4.8917266061831535e-05 5.3032317506022284e-05 -6.53428894976455e-05 6.723331669951149e-05
 -4.8917266061831535e-05 5.3032317506022284e-05 -4.8917266061831535e-05 5.3032317506022284e-05 0.8649890881190512 -0.012369063195243925 0.9318930401678113 -0.00684665441629037
 -5.087274351209838e-05 5.532994348935891e-05 -6.53428894976455e-05 6.723331669951149e-05 0.9318930401678113 -0.00684665441629037 0.8649890881190512 -0.012369063195243925
64000000.0 0.8919440698408517 -0.010896721989173477 0.9454012431312572 -0.006069894091226555 -4.7329855590592814e-05 5.5266029860283926e-05 -6.096486553492497e-05 6.801715026171637e-05
 0.9454012431312572 -0.006069894091226555 0.8919440698408517 -0.010896721989173477 -4.7329855590592814e-05 5.5266029860283926e-05 -6.348936352068353e-05 6.988715540923763e-05
 -4.7329855590592814e-05 5.5266029860283926e-05 -4.7329855590592814e-05 5.5266029860283926e-05 0.8655730738408831 -0.013173569833245552 0.9321852316920978 -0.007257427526436871
 -4.9253933590687136e-05 5.749826140702343e-05 -6.348936352068353e-05 6.988715540923763e-05 0.9321852316920978 -0.007257427526436871 0.8655730738408831 -0.013173569833245552
65000000.0 0.8924135539498815 -0.011556442670715667 0.9456310360190403 -0.006405562299513747 -4.5707060961074026e-05 5.746094698853841e-05 -5.9020182110465746e-05 7.06967154631616e-05
 0.9456310360190403 -0.006405562299513747 0.8924135539498815 -0.011556442670715667 -4.5707060961074026e-05 5.746094698853841e-05 -6.158829260117192e-05 7.250016967519069e-05
 -4.5707060961074026e-05 5.746094698853841e-05 -4.5707060961074026e-05 5.746094698853841e-05 0.8661540726110446 -0.01398671084505403 0.9324760931253108 -0.00767230850254063
 -4.760023579010856e-05 5.962832769910856e-05 -6.158829260117192e-05 7.250016967519069e-05 0.9324760931253108 -0.00767230850254063 0.8661540726110446 -0.01398671084505403
66000000.0 0.8928806123244569 -0.01222283015145246 0.9458597309481234 -0.006744350473744804 -4.4048580034798305e-05 5.961712324491627e-05 -5.7029245311275734e-05 7.333193898407397e-05
 0.9458597309481234 -0.006744350473744804 0.8928806123244569 -0.01222283015145246 -4.4048580034798305e-05 5.961712324491627e-05 -5.963927939188285e-05 7.50721232281791e-05
 -4.4048580034798305e-05 5.961712324491627e-05 -4.4048580034798305e-05 5.961712324491627e-05 0.8667319228618026 -0.014808381114911505 0.9327655451752467 -0.008091249466494454
 -4.591136561681265e-05 6.17201805888146e-05 -5.963927939188285e-05 7.50721232281791e-05 0.9327655451752467 -0.008091249466494454 0.8667319228618026 -0.014808381114911505
67000000.0 0.8933451268339441 -0.012895798840652123 0.9460872702331923 -0.007086220887359093 -4.235414004472308e-05 6.173454095711938e-05 -5.4991693943805125e-05 7.59226638212041e-05
 0.9460872702331923 -0.007086220887359093 0.8933451268339441 -0.012895798840652123 -4.235414004472308e-05 6.173454095711938e-05 -5.764196431724705e-05 7.76027021048165e-05
 -4.235414004472308e-05 6.173454095711938e-05 -4.235414004472308e-05 6.173454095711938e-05 0.867306473999983 -0.015638472060943216 0.933053513958352 -0.008514200618981602
 -4.418706626199097e-05 6.377378888185435e-05 -5.764196431724705e-05 7.76027021048165e-05 0.933053513958352 -0.008514200618981602 0.867306473999983 -0.015638472060943216
68000000.0 0.8938069877353472 -0.01357526094304937 0.9463136002588194 -0.007431134534759414 -4.062349666673462e-05 6.381311469852693e-05 -5.2907202768786794e-05 7.846865344719584e-05
 0.9463136002588194 -0.007431134534759414 0.8938069877353472 -0.01357526094304937 -4.062349666673462e-05 6.381311469852693e-05 -5.559602450730915e-05 8.009151921138958e-05
 -4.062349666673462e-05 6.381311469852693e-05 -4.062349666673462e-05 6.381311469852693e-05 0.8678775858252141 -0.016476872408781693 0.9333399307117677 -0.008941110633820139
 -4.24271077613308e-05 6.578905600358183e-05 -5.559602450730915e-05 8.009151921138958e-05 0.9333399307117677 -0.008941110633820139 0.8678775858252141 -0.016476872408781693
69000000.0 0.8942660932101042 -0.014261127028110578 0.9465386712528766 -0.007779051420063361 -3.885643322523189e-05 6.585269516082846e-05 -5.077548154489413e-05 8.096959632526184e-05
 0.9465386712528766 -0.007779051420063361 0.8942660932101042 -0.014261127028110578 -3.885643322523189e-05 6.585269516082846e-05 -5.350117287739367e-05 8.253811845245808e-05
 -3.885643322523189e-05 6.585269516082846e-05 -3.885643322523189e-05 6.585269516082846e-05 0.8684451279624822 -0.01732346889254243 0.9336247315127708 -0.009371927015411488
 -4.0631286283289214e-05 6.776582365725338e-05 -5.350117287739367e-05 8.253811845245808e-05 0.9336247315127708 -0.009371927015411488 0.8684451279624822 -0.01732346889254243
70000000.0 0.8947223489132222 -0.014953306544523037 0.9467624370662466 -0.00812993081819905 -3.705276002320725e-05 6.785307266608931e-05 -4.859627421808205e-05 8.342510999837889e-05
 0.9467624370662466 -0.00812993081819905 0.8947223489132222 -0.014953306544523037 -3.705276002320725e-05 6.785307266608931e-05 -5.1357157344643685e-05 8.49419784659254e-05
 -3.705276002320725e-05 6.785307266608931e-05 -3.705276002320725e-05 6.785307266608931e-05 0.8690089793089837 -0.018178146888706344 0.9339078570055439 -0.009806596422130626
 -3.879942353673385e-05 6.970387514041015e-05 -5.1357157344643685e-05 8.49419784659254e-05 0.9339078570055439 -0.009806596422130626 0.8690089793089837 -0.018178146888706344
71000000.0 0.8951756675346959 -0.01565170828411565 0.946984854958766 -0.00848373151048868 -3.521231378859786e-05 6.981398035312444e-05 -4.636935824779512e-05 8.583474479382822e-05
 0.946984854958766 -0.00848373151048868 0.8951756675346959 -0.01565170828411565 -3.521231378859786e-05 6.981398035312444e-05 -4.916376017392635e-05 8.730251600210695e-05
 -3.521231378859786e-05 6.981398035312444e-05 -3.521231378859786e-05 6.981398035312444e-05 0.8695690274953012 -0.019040790988001134 0.9341892521352524 -0.010245064958285914
 -3.6931366290108334e-05 7.160293835253822e-05 -4.916376017392635e-05 8.730251600210695e-05 0.9341892521352524 -0.010245064958285914 0.8695690274953012 -0.019040790988001134
72000000.0 0.8956259683731661 -0.01635624079906837 0.9472058853913402 -0.008840411996693772 -3.333495722985204e-05 7.173509706952469e-05 -4.409454406252297e-05 8.819798717981899e-05
 0.9472058853913402 -0.008840411996693772 0.8956259683731661 -0.01635624079906837 -3.333495722985204e-05 7.173509706952469e-05 -4.692079744673505e-05 8.96190889806299e-05
 -3.333495722985204e-05 7.173509706952469e-05 -3.333495722985204e-05 7.173509706952469e-05 0.8701251683609023 -0.01991128550995334 0.9344688658893952 -0.010687278437031733
 -3.502698599540142e-05 7.346268852380338e-05 -4.692079744673505e-05 8.96190889806299e-05 0.9344688658893952 -0.010687278437031733 0.8701251683609023 -0.01991128550995334
73000000.0 0.8960731769217702 -0.017066812775952275 0.9474254918241835 -0.009199930685320825 -3.142057869465949e-05 7.361604999758288e-05 -4.1771674638291084e-05 9.051426280735278e-05
 0.9474254918241835 -0.009199930685320825 0.8960731769217702 -0.017066812775952275 -3.142057869465949e-05 7.361604999758288e-05 -4.462811864768306e-05 9.189099925575433e-05
 -3.142057869465949e-05 7.361604999758288e-05 -3.142057869465949e-05 7.361604999758288e-05 0.8706773054439834 -0.020789514964411254 0.9347466510464083 -0.011133182616437007
 -3.308617851116508e-05 7.528275069171292e-05 -4.462811864768306e-05 9.189099925575433e-05 0.9347466510464083 -0.011133182616437007 0.8706773054439834 -0.020789514964411254
74000000.0 0.8965172244661287 -0.017783333369865446 0.9476436405211262 -0.009562246063849148 -2.9469091926659195e-05 7.545641703964495e-05 -3.9400625194624426e-05 9.278293926733674e-05
 0.9476436405211262 -0.009562246063849148 0.8965172244661287 -0.017783333369865446 -2.9469091926659195e-05 7.545641703964495e-05 -4.2285606364013504e-05 9.411749511785852e-05
 -2.9469091926659195e-05 7.545641703964495e-05 -2.9469091926659195e-05 7.545641703964495e-05 0.8712253494856508 -0.021675364463995442 0.9350225639314944 -0.011582723410728855
 -3.110886391965586e-05 7.70627019499699e-05 -4.2285606364013504e-05 9.411749511785852e-05 0.9350225639314944 -0.011582723410728855 0.8712253494856508 -0.021675364463995442
75000000.0 0.8969580476944081 -0.01850571250166901 0.9478603003599377 -0.00992731685040395 -2.7480435915682655e-05 7.725572898601675e-05 -3.698130300333944e-05 9.5003328590182e-05
 0.9478603003599377 -0.00992731685040395 0.8969580476944081 -0.01850571250166901 -2.7480435915682655e-05 7.725572898601675e-05 -3.989317609425717e-05 9.629777355632077e-05
 -2.7480435915682655e-05 7.725572898601675e-05 -2.7480435915682655e-05 7.725572898601675e-05 0.8717692179484141 -0.022568720091124077 0.9352965641796384 -0.012035847078578354
 -2.9094986433890367e-05 7.880207349150982e-05 -3.989317609425717e-05 9.629777355632077e-05 0.9352965641796384 -0.012035847078578354 0.8717692179484141 -0.022568720091124077
76000000.0 0.8973955883193715 -0.019233861121092447 0.948075442648605 -0.010295102128278789 -2.5454574837733248e-05 7.901347148644812e-05 -3.451364730622332e-05 9.71746895126845e-05
 0.948075442648605 -0.010295102128278789 0.8973955883193715 -0.019233861121092447 -2.5454574837733248e-05 7.901347148644812e-05 -3.7450776162778806e-05 9.843098230682012e-05
 -2.5454574837733248e-05 7.901347148644812e-05 -2.5454574837733248e-05 7.901347148644812e-05 0.8723088345489507 -0.02346946922298149 0.9355686145057686 -0.012492500390131162
 -2.704451439102441e-05 8.050035246570825e-05 -3.7450776162778806e-05 9.843098230682012e-05 0.9355686145057686 -0.012492500390131162 0.8723088345489507 -0.02346946922298149
77000000.0 0.8978297927123239 -0.01996769143826697 0.9482890409475023 -0.010665561464601183 -2.3391498081458087e-05 8.072908684435746e-05 -3.1997629338265595e-05 9.9296229534835e-05
 0.9482890409475023 -0.010665561464601183 0.8978297927123239 -0.01996769143826697 -2.3391498081458087e-05 8.072908684435746e-05 -3.4958387737472995e-05 0.00010051622170413304
 -2.3391498081458087e-05 8.072908684435746e-05 -2.3391498081458087e-05 8.072908684435746e-05 0.8728441288050681 -0.024377500817535827 0.9358386804820193 -0.012952630774379685
 -2.495744032899915e-05 8.21569836679836e-05 -3.4958387737472995e-05 0.00010051622170413304 0.9358386804820193 -0.012952630774379685 0.8728441288050681 -0.024377500817535827
78000000.0 0.8982606115488292 -0.020707117126044807 0.9485010708973731 -0.011038655014335192 -2.1291220358349975e-05 8.240197565132327e-05 -2.943325245362919e-05 0.00010136710678730841
 0.9485010708973731 -0.011038655014335192 0.8982606115488292 -0.020707117126044807 -2.1291220358349975e-05 8.240197565132327e-05 -3.2416024948321427e-05 0.00010255254635978148
 -2.1291220358349975e-05 8.240197565132327e-05 -2.1291220358349975e-05 8.240197565132327e-05 0.8733750355967664 -0.025292705663476744 0.9361067303220143 -0.013416186448324631
 -2.2833781143863402e-05 8.3771371078467e-05 -3.2416024948321427e-05 0.00010255254635978148 0.9361067303220143 -0.013416186448324631 0.8733750355967664 -0.025292705663476744
79000000.0 0.8986879994660701 -0.021452053495283428 0.9487115100530591 -0.011414343610715185 -1.9153781894333626e-05 8.403149827792155e-05 -2.682055235200359e-05 0.00010338643172871192
 0.9487115100530591 -0.011414343610715185 0.8986879994660701 -0.021452053495283428 -1.9153781894333626e-05 8.403149827792155e-05 -2.982373510490782e-05 0.00010453896668237752
 -1.9153781894333626e-05 8.403149827792155e-05 -1.9153781894333626e-05 8.403149827792155e-05 0.8739014947412813 -0.026214976596727273 0.9363727346721139 -0.013883116529278183
 -2.067357832558075e-05 8.534287926504101e-05 -2.982373510490782e-05 0.00010453896668237752 0.9363727346721139 -0.013883116529278183 0.8739014947412813 -0.026214976596727273
80000000.0 0.8991119147316914 -0.022202417645105037 0.9489203377228759 -0.011792588843130539 -1.6979248700751627e-05 8.561697623571746e-05 -2.4159597403370212e-05 0.00010535326869019727
 0.9489203377228759 -0.011792588843130539 0.8991119147316914 -0.022202417645105037 -1.6979248700751627e-05 8.561697623571746e-05 -2.718159901132141e-05 0.0001064744502571711
 -1.6979248700751627e-05 8.561697623571746e-05 -1.6979248700751627e-05 8.561697623571746e-05 0.8744234505819597 -0.0271442086859755 0.9366366664095317 -0.014353371131549749
 -1.8476898270480463e-05 8.687083466484455e-05 -2.718159901132141e-05 0.0001064744502571711 0.9366366664095317 -0.014353371131549749 0.8744234505819597 -0.0271442086859755
81000000.0 0.8995323189239584 -0.022958128589990218 0.9491275348135518 -0.012173353123393023 -1.4767712923078615e-05 8.715769342409472e-05 -2.145048906955021e-05 0.00010726663728374502
 0.9491275348135518 -0.012173353123393023 0.8995323189239584 -0.022958128589990218 -1.4767712923078615e-05 8.715769342409472e-05 -2.4489731377163394e-05 0.00010835792310013486
 -1.4767712923078615e-05 8.715769342409472e-05 -1.4767712923078615e-05 8.715769342409472e-05 0.8749408515907978 -0.028080299389494585 0.9368985004472319 -0.014826901448664373
 -1.6243832668812885e-05 8.835452675727943e-05 -2.4489731377163394e-05 0.00010835792310013486 0.9368985004472319 -0.014826901448664373 0.8749408515907978 -0.028080299389494585
82000000.0 0.8999491766230494 -0.023719107365414178 0.9493330836806284 -0.012556599741246123 -1.2519293265962709e-05 8.865289727462106e-05 -1.869336242119412e-05 0.00010912551368928772
 0.9493330836806284 -0.012556599741246123 0.8999491766230494 -0.023719107365414178 -1.2519293265962709e-05 8.865289727462106e-05 -2.174828132361657e-05 0.0001101882708008858
 -1.2519293265962709e-05 8.865289727462106e-05 -1.2519293265962709e-05 8.865289727462106e-05 0.8754536499844482 -0.029023148685337005 0.9371582135454977 -0.015303659822167621
 -1.3974498966130382e-05 8.979320914062178e-05 -2.174828132361657e-05 0.0001101882708008858 0.9371582135454977 -0.015303659822167621 0.8754536499844482 -0.029023148685337005
83000000.0 0.9003624551132754 -0.02448527711360956 0.9495369679842189 -0.012942292909915816 -1.0234135493426446e-05 9.010179980477727e-05 -1.5888386749123945e-05 0.00011092883183483637
 0.9495369679842189 -0.012942292909915816 0.9003624551132754 -0.02448527711360956 -1.0234135493426446e-05 9.010179980477727e-05 -1.8957432983747914e-05 0.0001119643395678371
 -1.0234135493426446e-05 9.010179980477727e-05 -1.0234135493426446e-05 9.010179980477727e-05 0.8759618013534901 -0.029972659176832058 0.9374157841300667 -0.015783599797995828
 -1.1669040897441729e-05 9.118610052352335e-05 -1.8957432983747914e-05 0.0001119643395678371 0.9374157841300667 -0.015783599797995828 0.8759618013534901 -0.029972659176832058
84000000.0 0.9007721240960236 -0.025256563150909562 0.9497391725500205 -0.013330397802427972 -7.912413003260326e-06 9.150357859212065e-05 -1.3035766269150513e-05 0.00011267548448289799
 0.9497391725500205 -0.013330397802427972 0.9007721240960236 -0.025256563150909562 -7.912413003260326e-06 9.150357859212065e-05 -1.6117406196389433e-05 0.00011368493718818294
 -7.912413003260326e-06 9.150357859212065e-05 -7.912413003260326e-06 9.150357859212065e-05 0.876465264304731 -0.030928736175167757 0.9376711921167087 -0.0162666761713152
 -9.32762909328063e-06 9.253238564197169e-05 -1.6117406196389433e-05 0.00011368493718818294 0.9376711921167087 -0.0162666761713152 0.876465264304731 -0.030928736175167757
85000000.0 0.9011781554131999 -0.026032893018011965 0.9499396832354554 -0.013720880579368232 -5.554327474811494e-06 9.28573776792841e-05 -1.0135740919670503e-05 0.0001143643242357068
 0.9499396832354554 -0.013720880579368232 0.9011781554131999 -0.026032893018011965 -5.554327474811494e-06 9.28573776792841e-05 -1.3228457293091263e-05 0.00011534883391462665
 -5.554327474811494e-06 9.28573776792841e-05 -5.554327474811494e-06 9.28573776792841e-05 0.876964000116302 -0.03189128776069231 0.9379244187421232 -0.01675284502064712
 -6.950461756993279e-06 9.383121611165355e-05 -1.3228457293091263e-05 0.00011534883391462665 0.9379244187421232 -0.01675284502064712 0.876964000116302 -0.03189128776069231
86000000.0 0.9015805227809427 -0.026814196514396742 0.9501384868008467 -0.014113708408702371 -3.160109589515035e-06 9.416230841963907e-05 -7.1885872514969946e-06 0.00011599416447112792
 0.9501384868008467 -0.014113708408702371 0.9015805227809427 -0.026814196514396742 -3.160109589515035e-06 9.416230841963907e-05 -1.029087997776255e-05 0.00011695476329016913
 -3.160109589515035e-06 9.416230841963907e-05 -3.160109589515035e-06 9.416230841963907e-05 0.8774579724052938 -0.032860224824444784 0.9381754464010271 -0.017242063732056015
 -4.537765412689064e-06 9.508171122512534e-05 -1.029087997776255e-05 0.00011695476329016913 0.9381754464010271 -0.017242063732056015 0.8774579724052938 -0.032860224824444784
87000000.0 0.9019792015333813 -0.027600405718031306 0.950335570785492 -0.014508849478223883 -7.300198236325156e-07 9.541745027294482e-05 -4.194619409500829e-06 0.00011756378022051927
 0.950335570785492 -0.014508849478223883 0.9019792015333813 -0.027600405718031306 -7.300198236325156e-07 9.541745027294482e-05 -7.305006298711964e-06 0.00011850142292175785
 -7.300198236325156e-07 9.541745027294482e-05 -7.300198236325156e-07 9.541745027294482e-05 0.8779471468076715 -0.03383546109130105 0.9384242584892999 -0.017734291014087876
 -2.089795723412167e-06 9.62829587027258e-05 -7.305006298711964e-06 0.00011850142292175785 0.9384242584892999 -0.017734291014087876 0.8779471468076715 -0.03383546109130105
88000000.0 0.9023741683761878 -0.028391454991399744 0.9505309233885298 -0.014906273001148043 1.735650687240786e-06 9.662185155988016e-05 -1.1541902057370589e-06 0.00011907190899934778
 0.9505309233885298 -0.014906273001148043 0.9023741683761878 -0.028391454991399744 1.735650687240786e-06 9.662185155988016e-05 -4.27120771287396e-06 0.00011998747521316197
 1.735650687240786e-06 9.662185155988016e-05 1.735650687240786e-06 9.662185155988016e-05 0.8784314906702082 -0.034816913126007216 0.9386708392530536 -0.01822948690410783
 3.9316162081637645e-07 9.743401540576606e-05 -4.27120771287396e-06 0.00011998747521316197 0.9386708392530536 -0.01822948690410783 0.8784314906702082 -0.034816913126007216
89000000.0 0.9027654011497042 -0.02918728097480903 0.9507245333544772 -0.015305949215335197 4.236579212265875e-06 9.77745301839852e-05 1.9323077161978594e-06 0.00012051725160093981
 0.9507245333544772 -0.015305949215335197 0.9027654011497042 -0.02918728097480903 4.236579212265875e-06 9.77745301839852e-05 -1.1898962420575112e-06 0.00012141154806706978
 4.236579212265875e-06 9.77745301839852e-05 4.236579212265875e-06 9.77745301839852e-05 0.8789109727541606 -0.03580450032326471 0.938915173643486 -0.018727612766625722
 2.910789945365488e-06 9.85339080201945e-05 -1.1898962420575112e-06 0.00012141154806706978 0.938915173643486 -0.018727612766625722 0.8789109727541606 -0.03580450032326471
90000000.0 0.9031528786013909 -0.02998782256784205 0.9509163898633185 -0.01570784937656657 6.772410418359685e-06 9.887447432923288e-05 5.064440625783199e-06 0.00012189847286340217
 0.9509163898633185 -0.01570784937656657 0.9031528786013909 -0.02998782256784205 6.772410418359685e-06 9.887447432923288e-05 1.938474278915498e-06 0.00012277223556610278
 6.772410418359685e-06 9.887447432923288e-05 6.772410418359685e-06 9.887447432923288e-05 0.8793855629504269 -0.03679814488293614 0.9391572471773897 -0.019228631284144013
 5.462740564001048e-06 9.95816337186482e-05 1.938474278915498e-06 0.00012277223556610278 0.9391572471773897 -0.019228631284144013 0.8793855629504269 -0.03679814488293614
91000000.0 0.903536580167373 -0.030793020899749182 0.951106482425043 -0.01611194574628678 9.342755292385358e-06 9.992064314119474e-05 8.241732359347033e-06 0.00012321420241946258
 0.951106482425043 -0.01611194574628678 0.903536580167373 -0.030793020899749182 9.342755292385358e-06 9.992064314119474e-05 5.113406862308899e-06 0.00012406809864219195
 9.342755292385358e-06 9.992064314119474e-05 9.342755292385358e-06 9.992064314119474e-05 0.8798552320059145 -0.037797771771341006 0.9393970458031772 -0.019732506441024096
 8.048631682732438e-06 0.00010057616080857206 5.113406862308899e-06 0.00012406809864219195 0.9393970458031772 -0.019732506441024096 0.8798552320059145 -0.037797771771341006
92000000.0 0.9039164857628528 -0.03160281928950206 0.9512948007785024 -0.01651821157415601 1.1947189992801198e-05 0.00010091196739955706 1.1463662883174265e-05 0.00012446303543875602
 0.9512948007785024 -0.01651821157415601 0.9039164857628528 -0.03160281928950206 1.1947189992801198e-05 0.00010091196739955706 8.33435993594627e-06 0.00012529766574357237
 1.1947189992801198e-05 0.00010091196739955706 1.1947189992801198e-05 0.00010091196739955706 0.880319951260863 -0.03880330866953111 0.9396345557722952 -0.020239203500814085
 1.0668047234689293e-05 0.00010151642937389794 8.33435993594627e-06 0.00012529766574357237 0.9396345557722952 -0.020239203500814085 0.880319951260863 -0.03880330866953111
93000000.0 0.9042925755811638 -0.03241716319616391 0.9514813347944948 -0.016926621075758 1.4585254631045146e-05 0.00010184735018958192 1.4729666766152245e-05 0.00012564353337190677
 0.9514813347944948 -0.016926621075758 0.9042925755811638 -0.03241716319616391 1.4585254631045146e-05 0.00010184735018958192 1.1600745820237423e-05 0.0001264594335085055
 1.4585254631045146e-05 0.00010184735018958192 1.4585254631045146e-05 0.00010184735018958192 0.880779692396862 -0.0398146859093479 0.939869763515901 -0.02074868897744802
 1.332053564622906e-05 0.00010240135191763315 1.1600745820237423e-05 0.0001264594335085055 0.939869763515901 -0.02074868897744802 0.880779692396862 -0.0398146859093479
94000000.0 0.9046648299012603 -0.03323600016017141 0.9516660743829659 -0.017337149405747987 1.7256451982958644e-05 0.0001027256675799834 1.8039131562201418e-05 0.00012675422470563236
 0.9516660743829659 -0.017337149405747987 0.9046648299012603 -0.03323600016017141 1.7256451982958644e-05 0.0001027256675799834 1.49119291139911e-05 0.00012755186745474464
 1.7256451982958644e-05 0.0001027256675799834 1.7256451982958644e-05 0.0001027256675799834 0.8812344271953318 -0.04083183639799225 0.9401026555266764 -0.02126093060068302
 1.60056085345041e-05 0.00010322981401260225 1.49119291139911e-05 0.00012755186745474464 0.9401026555266764 -0.02126093060068302 0.8812344271953318 -0.04083183639799225
95000000.0 0.9050332289034351 -0.03405927973606231 0.9518490094042317 -0.017749772626716707 1.9960246130604954e-05 0.00010354576931460491 2.1391396102812414e-05 0.00012779360573801543
 0.9518490094042317 -0.017749772626716707 0.9050332289034351 -0.03405927973606231 1.9960246130604954e-05 0.00010354576931460491 1.8267224989333103e-05 0.000128573402693699
 1.9960246130604954e-05 0.00010354576931460491 1.9960246130604954e-05 0.00010354576931460491 0.8816841273062264 -0.04185469553176487 0.9403332182456736 -0.021775897276108524
 1.8722739336769698e-05 0.00010400067496751479 1.8267224989333103e-05 0.000128573402693699 0.9403332182456736 -0.021775897276108524 0.8816841273062264 -0.04185469553176487
96000000.0 0.9053977524930695 -0.03488695341713221 0.9520301295841248 -0.018164467674011694 2.269606103490437e-05 0.00010430647952523032 2.4785748700104546e-05 0.00012876014138304672
 0.9520301295841248 -0.018164467674011694 0.9053977524930695 -0.03488695341713221 2.269606103490437e-05 0.00010430647952523032 2.1665897396154173e-05 0.00012952244467823553
 2.269606103490437e-05 0.00010430647952523032 2.269606103490437e-05 0.00010430647952523032 0.8821287640267479 -0.04288320109957026 0.9405614379540709 -0.022293559040025977
 2.1471361871783134e-05 0.00010471276851549551 2.1665897396154173e-05 0.00012952244467823553 0.9405614379540709 -0.022293559040025977 0.8821287640267479 -0.04288320109957026
97000000.0 0.9057583801322555 -0.03571897455245264 0.9522094244329924 -0.018581212316731044 2.5463279039603683e-05 0.00010500659747284297 2.822142526094793e-05 0.0001296522660135446
 0.9522094244329924 -0.018581212316731044 0.9057583801322555 -0.03571897455245264 2.5463279039603683e-05 0.00010500659747284297 2.51071571766478e-05 0.00013039736999307628
 2.5463279039603683e-05 0.00010500659747284297 2.5463279039603683e-05 0.00010500659747284297 0.8825683080898757 -0.04391729317671622 0.9407873006697541 -0.022813887009470745
 2.425086883373874e-05 0.00010536490353220591 2.51071571766478e-05 0.00013039736999307628 0.9407873006697541 -0.022813887009470745 0.8825683080898757 -0.04391729317671622
98000000.0 0.9061150906791072 -0.036555298256636365 0.9523868831684542 -0.01899998511508656 2.8261239307211894e-05 0.00010564489832465214 3.169760731284181e-05 0.00013046838435158402
 0.9523868831684542 -0.01899998511508656 0.9061150906791072 -0.036555298256636365 2.8261239307211894e-05 0.00010564489832465214 2.859016009065928e-05 0.0001311965271967959
 2.8261239307211894e-05 0.00010564489832465214 2.8261239307211894e-05 0.00010564489832465214 0.883002729462522 -0.04495691400948489 0.9410107920486224 -0.023336853327614225
 2.7060610219299385e-05 0.00010595586479070466 2.859016009065928e-05 0.0001311965271967959 0.9410107920486224 -0.023336853327614225 0.883002729462522 -0.04495691400948489
99000000.0 0.9064678622346348 -0.03739588131269447 0.952562494641865 -0.019420765374309628 3.108923618767358e-05 0.00010622013397424169 3.5213419942425726e-05 0.00013120687241563372
 0.952562494641865 -0.019420765374309628 0.9064678622346348 -0.03739588131269447 3.108923618767358e-05 0.00010622013397424169 3.21140047527591e-05 0.0001319182377245071
 3.108923618767358e-05 0.00010622013397424169 3.108923618767358e-05 0.00010622013397424169 0.8834319971531644 -0.04600200789089822 0.9412318972905455 -0.02386243110476674
 2.989989168842452e-05 0.00010648441376024066 3.21140047527591e-05 0.0001319182377245071 0.9412318972905455 -0.02386243110476674 0.8834319971531644 -0.04600200789089822
100000000.0 0.9068166719970457 -0.03824068206828874 0.952736247268412 -0.019843533095252202 3.39465175207166e-05 0.00010673103391225097 3.876792964771165e-05 0.00013186607853369215
 0.952736247268412 -0.019843533095252202 0.9068166719970457 -0.03824068206828874 3.39465175207166e-05 0.00010673103391225097 3.5677730482173527e-05 0.00013256079686042283
 3.39465175207166e-05 0.00010673103391225097 3.39465175207166e-05 0.00010673103391225097 0.8838560790288064 -0.04705252102805454 0.941450601049902 -0.024390594355163348
 3.276797285986024e-05 0.00010694928945623712 3.5677730482173527e-05 0.00013256079686042283 0.941450601049902 -0.024390594355163348 0.8838560790288064 -0.04705252102805454
101000000.0 0.9071614961233628 -0.03908966032564914 0.952908128960803 -0.020268268921823276 3.683228287300333e-05 0.00010717630615507566 4.2360142105375076e-05 0.00013244432443182587
 0.952908128960803 -0.020268268921823276 0.9071614961233628 -0.03908966032564914 3.683228287300333e-05 0.00010717630615507566 3.9280315066964275e-05 0.00013312247478961914
 3.683228287300333e-05 0.00010717630615507566 3.683228287300333e-05 0.00010717630615507566 0.8842749416411607 -0.04810840140136713 0.9416668873506375 -0.02492131792971184
 3.566406554234829e-05 0.00010734920934881331 3.9280315066964275e-05 0.00013312247478961914 0.9416668873506375 -0.02492131792971184 0.8842749416411607 -0.04810840140136713
102000000.0 0.9075023095982844 -0.039942777225391794 0.9530781270665036 -0.020694954085376804 3.9745681711433024e-05 0.00010755463823917257 4.598899985472428e-05 0.000132939906407659
 0.9530781270665036 -0.020694954085376804 0.9075023095982844 -0.039942777225391794 3.9745681711433024e-05 0.00010755463823917257 4.292067244413628e-05 0.00013360151773846965
 3.9745681711433024e-05 0.00010755463823917257 3.9745681711433024e-05 0.00010755463823917257 0.8846885500619664 -0.04916959861599753 0.9418807395058062 -0.025454577444842964
 3.858733190282999e-05 0.00010768287033729472 4.292067244413628e-05 0.00013360151773846965 0.9418807395058062 -0.025454577444842964 0.8846885500619664 -0.04916959861599753
103000000.0 0.9078390861102066 -0.040799995124444745 0.9532462283084936 -0.021123570346160053 4.2685811514195546e-05 0.00010786469828866182 4.965337990028789e-05 0.00013335109659851543
 0.9532462283084936 -0.021123570346160053 0.9078390861102066 -0.040799995124444745 4.2685811514195546e-05 0.00010786469828866182 4.6597650297683264e-05 0.00013399614921339305
 4.2685811514195546e-05 0.00010786469828866182 4.2685811514195546e-05 0.00010786469828866182 0.885096867727374 -0.05023606374574064 0.9420921400415607 -0.025990349207601696
 4.153688257317183e-05 0.00010794894979827961 4.6597650297683264e-05 0.00013399614921339305 0.9420921400415607 -0.025990349207601696 0.885096867727374 -0.05023606374574064
104000000.0 0.908171797934378 -0.04166127746826155 0.9534124187295262 -0.021554099931915732 4.565171582145411e-05 0.0001081051361640471 5.335209123532034e-05 0.00013367614435409172
 0.9534124187295262 -0.021554099931915732 0.908171797934378 -0.04166127746826155 4.565171582145411e-05 0.0001081051361640471 5.031002757694525e-05 0.00013430457134773737
 4.565171582145411e-05 0.0001081051361640471 4.565171582145411e-05 0.0001081051361640471 0.8854998562913696 -0.051307749169584256 0.9423010706255683 -0.02652861013708837
 4.451177469721735e-05 0.00010814610671496544 5.031002757694525e-05 0.00013430457134773737 0.9423010706255683 -0.02652861013708837 0.8854998562913696 -0.051307749169584256
105000000.0 0.9085004158231634 -0.042526588657479325 0.9535766836398835 -0.021986525473718193 4.8642382227853426e-05 0.00010827458470000609 5.708387228892781e-05 0.0001339132777237289
 0.9535766836398835 -0.021986525473718193 0.9085004158231634 -0.042526588657479325 4.8642382227853426e-05 0.00010827458470000609 5.405651193806549e-05 0.0001345249663668247
 4.8642382227853426e-05 0.00010827458470000609 4.8642382227853426e-05 0.00010827458470000609 0.8858974754882398 -0.05238460840114065 0.942507511999867 -0.027069337682355626
 4.7511009920285506e-05 0.00010827298289557763 5.405651193806549e-05 0.0001345249663668247 0.942507511999867 -0.027069337682355626 0.8858974754882398 -0.05238460840114065
106000000.0 0.9088249089034227 -0.0433958939091587 0.9537390075686338 -0.02242082993911423 5.1656740319395585e-05 0.00010837166104034996 6.0847388299963454e-05 0.00013406070506854356
 0.9537390075686338 -0.02242082993911423 0.9088249089034227 -0.0433958939091587 5.1656740319395585e-05 0.00010837166104034996 5.7835737111784605e-05 0.00013465549818137814
 5.1656740319395585e-05 0.00010837166104034996 5.1656740319395585e-05 0.00010837166104034996 0.8862896830041 -0.0534665959111216 0.9427114439181558 -0.02761250973684489
 5.053353232358202e-05 0.00010832820428889354 5.7835737111784605e-05 0.00013465549818137814 0.9427114439181558 -0.02761250973684489 0.8862896830041 -0.0534665959111216
107000000.0 0.9091452445810414 -0.0442691591127241 0.9538993742184134 -0.022856996562635432 5.469365955761474e-05 0.00010839496807839488 6.464122862133463e-05 0.00013411661680888531
 0.9538993742184134 -0.022856996562635432 0.9091452445810414 -0.0442691591127241 5.469365955761474e-05 0.00010839496807839488 6.16462602013145e-05 0.00013469431411976843
 5.469365955761474e-05 0.00010839496807839488 5.469365955761474e-05 0.00010839496807839488 0.8866764343575539 -0.05455366694300711 0.9429128450875646 -0.028158104549446904
 5.357822630637644e-05 0.00010831038240500923 6.16462602013145e-05 0.00013469431411976843 0.9429128450875646 -0.028158104549446904 0.8866764343575539 -0.05455366694300711
108000000.0 0.9094613884526707 -0.04514635068070995 0.9540577664237553 -0.023295008773737007 5.7751947114405366e-05 0.00010834309601113984 6.846390395890713e-05 0.0001340791873177902
 0.9540577664237553 -0.023295008773737007 0.9094613884526707 -0.04514635068070995 5.7751947114405366e-05 0.00010834309601113984 6.548655891458196e-05 0.00013463954680972126
 5.7751947114405366e-05 0.00010834309601113984 5.7751947114405366e-05 0.00010834309601113984 0.8870576827895765 -0.05564577732204365 0.9431116931149414 -0.02870610063224996
 5.6643914419219116e-05 0.00010821811584964964 6.548655891458196e-05 0.00013463954680972126 0.9431116931149414 -0.02870610063224996 0.8870576827895765 -0.05564577732204365
109000000.0 0.9097733042247625 -0.04602743539440639 0.9542141661130237 -0.023734850122210143 6.08303456613242e-05 0.00010821462401579253 7.231384354978746e-05 0.00013394657697130325
 0.9542141661130237 -0.023734850122210143 0.9097733042247625 -0.04602743539440639 6.08303456613242e-05 0.00010821462401579253 6.935502873573675e-05 0.0001344893162203401
 6.08303456613242e-05 0.00010821462401579253 6.08303456613242e-05 0.00010821462401579253 0.8874333791627529 -0.056742883257691265 0.94330796445772 -0.029256476665041317
 5.972935515193669e-05 0.00010804999198047931 6.935502873573675e-05 0.0001344893162203401 0.94330796445772 -0.029256476665041317 0.8874333791627529 -0.056742883257691265
110000000.0 0.9100809536400213 -0.046912380244489606 0.9543685542740014 -0.024176504201122134 6.39275311176965e-05 0.00010800812205732651 7.618939228541377e-05 0.0001337169343667381
 0.9543685542740014 -0.024176504201122134 0.9100809536400213 -0.046912380244489606 6.39275311176965e-05 0.00010800812205732651 7.324998004147647e-05 0.00013424173187549248
 6.39275311176965e-05 0.00010800812205732651 6.39275311176965e-05 0.00010800812205732651 0.8878034718700389 -0.05784494113963368 0.9435016343794563 -0.029809211396623497
 6.283324068065104e-05 0.00010780458869401536 7.324998004147647e-05 0.00013424173187549248 0.9435016343794563 -0.029809211396623497 0.8878034718700389 -0.05784494113963368
111000000.0 0.9103842964114096 -0.04780115226671775 0.9545209109232139 -0.024619954567322296 6.70421103624052e-05 0.00010772215283588762 8.008880778558949e-05 0.00013338839872012649
 0.9545209109232139 -0.024619954567322296 0.9103842964114096 -0.04780115226671775 6.70421103624052e-05 0.00010772215283588762 7.716963516845221e-05 0.00013389489524979768
 6.70421103624052e-05 0.00010772215283588762 6.70421103624052e-05 0.00010772215283588762 0.8881679067532484 -0.05895190732745663 0.9436926769101197 -0.030364283542994145
 6.595419457861365e-05 0.00010748047635188621 7.716963516845221e-05 0.00013389489524979768 0.9436926769101197 -0.030364283542994145 0.8881679067532484 -0.05895190732745663
112000000.0 0.91068329016389 -0.048693718372769354 0.9546712150790684 -0.02506518465956101 7.01726189148443e-05 0.00010735527388298554 8.401025743036364e-05 0.0001329591024542758
 0.9546712150790684 -0.02506518465956101 0.91068329016389 -0.048693718372769354 7.01726189148443e-05 0.00010735527388298554 8.111212543879613e-05 0.00013344690235862232
 7.01726189148443e-05 0.00010735527388298554 7.01726189148443e-05 0.00010735527388298554 0.8885266270315029 -0.060063737934101954 0.9438810648112693 -0.03092167168245164
 6.909076949624632e-05 0.00010707621985530238 8.111212543879613e-05 0.00013344690235862232 0.9438810648112693 -0.03092167168245164 0.8885266270315029 -0.060063737934101954
113000000.0 0.9109778903840976 -0.04959004517630545 0.9548194447389146 -0.02551217771426583 7.331751859116081e-05 0.00010690603981551114 8.79518153574842e-05 0.0001324271739889975
 0.9548194447389146 -0.02551217771426583 0.9109778903840976 -0.04959004517630545 7.331751859116081e-05 0.00010690603981551114 8.50754881516446e-05 0.00013289584655363208
 7.331751859116081e-05 0.00010690603981551114 7.331751859116081e-05 0.00010690603981551114 0.8888795732399277 -0.06118038860320418 0.9440667695462401 -0.03148135414767831
 7.224144481641901e-05 0.0001065903808767151 8.50754881516446e-05 0.00013289584655363208 0.9440667695462401 -0.03148135414767831 0.8888795732399277 -0.06118038860320418
114000000.0 0.911268050378188 -0.05049009881433834 0.9549655768601472 -0.0259609166790217 7.64751951426055e-05 0.00010637300475669792 9.191145943404277e-05 0.00013179074074518596
 0.9549655768601472 -0.0259609166790217 0.911268050378188 -0.05049009881433834 7.64751951426055e-05 0.00010637300475669792 8.905766354943015e-05 0.00013223982153556772
 7.64751951426055e-05 0.00010637300475669792 7.64751951426055e-05 0.00010637300475669792 0.8892266831789061 -0.06230181428042849 0.9442497612554999 -0.03204330891486091
 7.540462429168912e-05 0.00010602152025772304 8.905766354943015e-05 0.00013223982153556772 0.9442497612554999 -0.03204330891486091 0.8892266831789061 -0.06230181428042849
115000000.0 0.9115537212381203 -0.0513938447639992 0.9551095873454766 -0.026411384123803748 7.964395588355893e-05 0.0001057547249331979 9.588706821188385e-05 0.00013104793237450236
 0.9551095873454766 -0.026411384123803748 0.9115537212381203 -0.0513938447639992 7.964395588355893e-05 0.0001057547249331979 9.30564917686798e-05 0.0001314769245959866
 7.964395588355893e-05 0.0001057547249331979 7.964395588355893e-05 0.0001057547249331979 0.8895678918742477 -0.06342796897893443 0.9444300087373438 -0.03260751348991659
 7.857863367096786e-05 0.00010536820058234389 9.30564917686798e-05 0.0001314769245959866 0.9444300087373438 -0.03260751348991659 0.8895678918742477 -0.06342796897893443
116000000.0 0.911834851816667 -0.05230124765480717 0.9552514510325116 -0.026863562150026023 8.282202731759412e-05 0.00010504976145746044 9.987641787737218e-05 0.00013019688422645918
 0.9552514510325116 -0.026863562150026023 0.911834851816667 -0.05230124765480717 8.282202731759412e-05 0.00010504976145746044 9.706970978608745e-05 0.00013060526009974833
 8.282202731759412e-05 0.00010504976145746044 8.282202731759412e-05 0.00010504976145746044 0.8899031315486657 -0.06455880553911238 0.9446074794341245 -0.03317394479189309
 8.176171832387226e-05 0.00010462898893479177 9.706970978608745e-05 0.00013060526009974833 0.9446074794341245 -0.03317394479189309 0.8899031315486657 -0.06455880553911238
117000000.0 0.9121113887114888 -0.053212271076559715 0.9553911416878295 -0.027317432297460482 8.60075527707886e-05 0.00010425668330458186 0.00010387717920720113 0.00012923574106468323
 0.9553911416878295 -0.027317432297460482 0.9121113887114888 -0.053212271076559715 8.60075527707886e-05 0.00010425668330458186 0.00010109494837172506 0.00012962294322000476
 8.60075527707886e-05 0.00010425668330458186 8.60075527707886e-05 0.00010425668330458186 0.8902323316049932 -0.06569427538275462 0.9447821394242246 -0.033742579033629254
 8.4952040871867e-05 0.00010380245985088704 0.00010109494837172506 0.00012962294322000476 0.9447821394242246 -0.033742579033629254 0.8902323316049932 -0.06569427538275462
118000000.0 0.9123832762586138 -0.05412687738297959 0.9555286320056892 -0.02777297544911024 8.919859004239921e-05 0.00010337407049272349 0.00010788691454308294 0.0001281626610440625
 0.9555286320056892 -0.02777297544911024 0.9123832762586138 -0.05412687738297959 8.919859004239921e-05 0.00010337407049272349 0.00010512972906242672 0.00012852810393737505
 8.919859004239921e-05 0.00010337407049272349 8.919859004239921e-05 0.00010337407049272349 0.8905554186216064 -0.06683432826185212 0.9449539534199973 -0.03431339159976883
 8.81476788361992e-05 0.00010288719847216079 0.00010512972906242672 0.00012852810393737505 0.9449539534199973 -0.03431339159976883 0.8905554186216064 -0.06683432826185212
119000000.0 0.9126504565357229 -0.055045027491278764 0.9556638936115918 -0.028230171734116113 9.239310908396663e-05 0.00010240051747607739 0.000111903074799384 0.0001269758199603407
 0.9556638936115918 -0.028230171734116113 0.9126504565357229 -0.055045027491278764 9.239310908396663e-05 0.00010240051747607739 0.00010917146116961189 0.0001273188913148416
 9.239310908396663e-05 0.00010240051747607739 9.239310908396663e-05 0.00010240051747607739 0.8908723163605652 -0.06797891200223735 0.9451228847719298 -0.03488635692223716
 9.134662231357649e-05 0.00010188180391160445 0.00010917146116961189 0.0001273188913148416 0.9451228847719298 -0.03488635692223716 0.8908723163605652 -0.06797891200223735
120000000.0 0.9129128693756429 -0.055966680677825106 0.9557968970708862 -0.028689000428793736 9.558898971892473e-05 0.00010133463675917622 0.00011592299651906416 0.00012567341578350282
 0.9557968970708862 -0.028689000428793736 0.9129128693756429 -0.055966680677825106 9.558898971892473e-05 0.00010133463675917622 0.00011321743883711657 0.0001259934780596738
 9.558898971892473e-05 0.00010133463675917622 9.558898971892473e-05 0.00010133463675917622 0.8911829457890065 -0.06912797224232824 0.9452888954792852 -0.03546144835331108
 9.454677169154423e-05 0.0001007848928398398 0.00011321743883711657 0.0001259934780596738 0.9452888954792852 -0.03546144835331108 0.8911829457890065 -0.06912797224232824
121000000.0 0.9131704523904975 -0.05689179437012761 0.9559276119026356 -0.029149439855920948 9.878401941584618e-05 0.00010017506274109396 0.00011994389899463537 0.00012425367348598964
 0.9559276119026356 -0.029149439855920948 0.9131704523904975 -0.05689179437012761 9.878401941584618e-05 0.00010017506274109396 0.00011726483816597192 0.00012455006538337392
 9.878401941584618e-05 0.00010017506274109396 9.878401941584618e-05 0.00010017506274109396 0.8914872251143765 -0.07028145216727093 0.9454519462075122 -0.036038638036423626
 9.774593541656961e-05 9.959510330024111e-05 0.00011726483816597192 0.00012455006538337392 0.9454519462075122 -0.036038638036423626 0.8914872251143765 -0.07028145216727093
122000000.0 0.9134231410069822 -0.057820323935392666 0.9560560065989788 -0.029611467282397358 0.00010197589112956272 9.89204557977584e-05 0.00012396288147227972 0.00012271485017637142
 0.9560560065989788 -0.029611467282397358 0.9134231410069822 -0.057820323935392666 0.00010197589112956272 9.89204557977584e-05 0.00012131071442450075 0.0001229868881702221
 0.00010197589112956272 9.89204557977584e-05 0.00010197589112956272 9.89204557977584e-05 0.8917850698341023 -0.07143929223882166 0.9456119963127123 -0.03661789677487948
 0.00010094182782894281 9.83110987612243e-05 0.00012131071442450075 0.0001229868881702221 0.9456119963127123 -0.03661789677487948 0.8917850698341023 -0.07143929223882166
123000000.0 0.9136708685132544 -0.05875222246593981 0.9561820486502207 -0.030075058815433542 0.0001051622012255527 9.756950661018273e-05 0.00012797692045874888 0.0001210552405485969
 0.9561820486502207 -0.030075058815433542 0.9136708685132544 -0.05875222246593981 0.0001051622012255527 9.756950661018273e-05 0.0001253519993635951 0.0001213022204644717
 0.0001051622012255527 9.756950661018273e-05 0.0001051622012255527 9.756950661018273e-05 0.8920763928003476 -0.07260142992136408 0.9457690038734834 -0.037199193898663344
 0.00010413206707975535 9.69315724135131e-05 0.0001253519993635951 0.0001213022204644717 0.9457690038734834 -0.037199193898663344 0.8920763928003476 -0.07260142992136408
124000000.0 0.9139135661179618 -0.05968744056180928 0.9563057045759101 -0.030540189297435023 0.00010834044750418495 9.612094074591949e-05 0.0001319828671522102 0.00011927318265629614
 0.9563057045759101 -0.030540189297435023 0.9139135661179618 -0.05968744056180928 0.00010834044750418495 9.612094074591949e-05 0.00012938549865859132 0.00011949438128559715
 0.00010834044750418495 9.612094074591949e-05 0.00010834044750418495 9.612094074591949e-05 0.8923611043005226 -0.07376779940451296 0.9459229257304599 -0.037782497129583995
 0.00010731417314640883 9.545525171969541e-05 0.00012938549865859132 0.00011949438128559715 0.9459229257304599 -0.037782497129583995 0.8923611043005226 -0.07376779940451296
125000000.0 0.9141511630219344 -0.06062592611094687 0.9564269399621584 -0.031006832199781068 0.00011150802734264568 9.45735235004267e-05 0.00013597744501979455 0.00011736706402084527
 0.9564269399621584 -0.031006832199781068 0.9141511630219344 -0.06062592611094687 0.00011150802734264568 9.45735235004267e-05 0.00013340788950075676 0.00011756174078021136
 0.00011150802734264568 9.45735235004267e-05 0.00011150802734264568 9.45735235004267e-05 0.8926391121542356 -0.07493833132281556 0.9460737175338921 -0.03836777244498187
 0.00011048556596434068 9.388090322278145e-05 0.00013340788950075676 0.00011756174078021136 0.9460737175338921 -0.03836777244498187 0.8926391121542356 -0.07493833132281556
126000000.0 0.9143835865031088 -0.06156762406739271 0.9565457195054768 -0.03147495951571386 0.00011466223597364422 9.292606500431463e-05 0.0001399572475462385 0.00011533532808098384
 0.9565457195054768 -0.03147495951571386 0.9143835865031088 -0.06156762406739271 0.00011466223597364422 9.292606500431463e-05 0.00013741571836304944 0.0001155027267183365
 0.00011466223597364422 9.292606500431463e-05 0.00011466223597364422 9.292606500431463e-05 0.8929103218274025 -0.07611295247313703 0.9462213337996097 -0.038954983940306796
 0.00011364356369391854 9.220733761976277e-05 0.00013741571836304944 0.0001155027267183365 0.9462213337996097 -0.038954983940306796 0.8929103218274025 -0.07611295247313703
127000000.0 0.9146107620152414 -0.06251247622796925 0.956662007063403 -0.031944541652590516 0.00011780026492129369 9.11774256015908e-05 0.0001439187361796867 0.0001131764809906982
 0.956662007063403 -0.031944541652590516 0.9146107620152414 -0.06251247622796925 0.00011780026492129369 9.11774256015908e-05 0.00014140539896649208 0.00011331583134061803
 0.00011780026492129369 9.11774256015908e-05 0.00011780026492129369 9.11774256015908e-05 0.8931746365642463 -0.07729158553038386 0.9463657279737243 -0.03954409369087583
 0.0001167853811427533 9.043341510533267e-05 0.00014140539896649208 0.00011331583134061803 0.9463657279737243 -0.03954409369087583 0.8931746365642463 -0.07729158553038386
128000000.0 0.9148326133009977 -0.06346042100801579 0.9567757657121937 -0.032415547323772526 0.00012091920061587848 8.932652150304071e-05 0.00014785823850242084 0.00011088909877083663
 0.9567757657121937 -0.032415547323772526 0.9148326133009977 -0.06346042100801579 0.00012091920061587848 8.932652150304071e-05 0.00014537321047521033 0.00011099961856180394
 0.00012091920061587848 8.932652150304071e-05 0.00012091920061587848 8.932652150304071e-05 0.8934319575379236 -0.07847414876230424 0.9465068525064373 -0.04013506161318019
 0.00011990812836499166 8.855805098995838e-05 0.00014537321047521033 0.00011099961856180394 0.9465068525064373 -0.04013506161318019 0.8934319575379236 -0.07847414876230424
129000000.0 0.91504906252 -0.06441139321678802 0.9568869578118749 -0.03288794344046715 0.0001240160232105524 8.73723307177544e-05 0.00015177194665599267 0.000108471834818485
 0.9568869578118749 -0.03288794344046715 0.91504906252 -0.06441139321678802 0.0001240160232105524 8.73723307177544e-05 0.00014931529594990297 0.00010855273153435437
 0.0001240160232105524 8.73723307177544e-05 0.0001240160232105524 8.73723307177544e-05 0.893682184020528 -0.07966055574418679 0.9466446589353128 -0.04072784532613688
 0.00012300880946048025 8.658022159538297e-05 0.00014931529594990297 0.00010855273153435437 0.9466446589353128 -0.04072784532613688 0.893682184020528 -0.07966055574418679
130000000.0 0.9152600303924211 -0.06536532383320984 0.9569955450789244 -0.033361695003863524 0.00012708760562433777 8.531389926452773e-05 0.0001556559160519588 0.00010592342777649864
 0.9569955450789244 -0.033361695003863524 0.9152600303924211 -0.06536532383320984 0.00012708760562433777 8.531389926452773e-05 0.00015322766109123487 0.00010597390057439043
 0.00012708760562433777 8.531389926452773e-05 0.00012708760562433777 8.531389926452773e-05 0.8939252135732173 -0.08085071507437316 0.9467790979783806 -0.04132240001274318
 0.00012608432159801815 8.449897042936557e-05 0.00015322766109123487 0.00010597390057439043 0.9467790979783806 -0.04132240001274318 0.8939252135732173 -0.08085071507437316
131000000.0 0.9154654363587097 -0.06632213978273553 0.9571014886668687 -0.033836764997944885 0.00013013071283711632 8.31503476634242e-05 0.0001595060644011131 0.00010324270976374056
 0.9571014886668687 -0.033836764997944885 0.9154654363587097 -0.06632213978273553 0.00013013071283711632 8.31503476634242e-05 0.0001571061733063484 0.00010326195145032018
 0.00013013071283711632 8.31503476634242e-05 0.00013013071283711632 8.31503476634242e-05 0.8941609422571993 -0.08204453009159328 0.9469101196374288 -0.041918678282617874
 0.00012913145428823186 8.231341464003948e-05 0.0001571061733063484 0.00010326195145032018 0.9469101196374288 -0.041918678282617874 0.8941609422571993 -0.08204453009159328
132000000.0 0.9156651987560152 -0.06728176371616541 0.9572047492550678 -0.03431311428339769 0.00013314200146359215 8.088087770616136e-05 0.00016331817109578237 0.00010042861496450516
 0.9572047492550678 -0.03431311428339769 0.9156651987560152 -0.06728176371616541 0.00013314200146359215 8.088087770616136e-05 0.00016094656113335823 0.00010041581403238397
 0.00013314200146359215 8.088087770616136e-05 0.00013314200146359215 8.088087770616136e-05 0.8943892648663019 -0.08324189859523926 0.9470376733118417 -0.04251663003598088
 0.0001321468889328993 8.002275174866237e-05 0.00016094656113335823 0.00010041581403238397 0.9470376733118417 -0.04251663003598088 0.8943892648663019 -0.08324189859523926
133000000.0 0.9158592350118735 -0.06824411379133531 0.9573052871459555 -0.03479070149307881 0.00013611801963446133 7.850477950218568e-05 0.00016708787698136883 9.748018857329967e-05
 0.9573052871459555 -0.03479070149307881 0.9158592350118735 -0.06824411379133531 0.00013611801963446133 7.850477950218568e-05 0.00016474441406031493 9.743453129902449e-05
 0.00013611801963446133 7.850477950218568e-05 0.00013611801963446133 7.850477950218568e-05 0.8946100751818207 -0.0844427125697936 0.9471617079233132 -0.0431162023296686
 0.00013512719867880105 7.762626665774763e-05 0.00016474441406031493 9.743453129902449e-05 0.9471617079233132 -0.0431162023296686 0.8946100751818207 -0.0844427125697936
134000000.0 0.9160474618556846 -0.06920910345868395 0.9574030623709802 -0.035269482929538506 0.00013905520721421127 7.602143879530721e-05 0.00017081068455486332 9.439659608860538e-05
 0.9574030623709802 -0.035269482929538506 0.9160474618556846 -0.06920910345868395 0.00013905520721421127 7.602143879530721e-05 0.00016849518277665945 9.431726869340772e-05
 0.00013905520721421127 7.602143879530721e-05 0.00013905520721421127 7.602143879530721e-05 0.8948232662503074 -0.08564685791474515 0.9472821720517701 -0.04371733924582829
 0.0001380688486053695 7.512333892958903e-05 0.00016849518277665945 9.431726869340772e-05 0.9472821720517701 -0.04371733924582829 0.8948232662503074 -0.08564685791474515
135000000.0 0.9162297955484727 -0.0701766412518014 0.9574980348054857 -0.03574941246514804 0.00014194989638608997 7.34303445435711e-05 0.00017448195862949608 9.117713294642776e-05
 0.9574980348054857 -0.03574941246514804 0.9162297955484727 -0.0701766412518014 0.00014194989638608997 7.34303445435711e-05 0.00017219417989663115 9.106332382057611e-05
 0.00014194989638608997 7.34303445435711e-05 0.00014194989638608997 7.34303445435711e-05 0.8950287306849126 -0.0868542141814337 0.9473990140827904 -0.04431998176400778
 0.0001409681962765262 7.251345032801658e-05 0.00017219417989663115 9.106332382057611e-05 0.9473990140827904 -0.04431998176400778 0.8950287306849126 -0.0868542141814337
136000000.0 0.9164061521313988 -0.07114663058413874 0.9575901642927453 -0.036230441445422035 0.00014479831263580038 7.07310967526505e-05 0.0001780969275060061 8.782123448137633e-05
 0.9575901642927453 -0.036230441445422035 0.9164061521313988 -0.07114663058413874 0.00014479831263580038 7.07310967526505e-05 0.00017583658119539806 8.767213647261256e-05
 0.00014479831263580038 7.07310967526505e-05 0.00014479831263580038 7.07310967526505e-05 0.8952263609908419 -0.08806465431838968 0.9475121823668051 -0.04492406763739629
 0.00014382149268811595 6.979619261384453e-05 0.00017583658119539806 8.767213647261256e-05 0.9475121823668051 -0.04492406763739629 0.8952263609908419 -0.08806465431838968
137000000.0 0.9165764476934212 -0.07211896955316294 0.9576794107773352 -0.03671251859616337 0.00014759657616636435 6.792341455043881e-05 0.00018165068469216594 8.432848619966908e-05
 0.9576794107773352 -0.03671251859616337 0.9165764476934212 -0.07211896955316294 0.00014759657616636435 6.792341455043881e-05 0.00017941742739982605 8.414329896581556e-05
 0.00014759657616636435 6.792341455043881e-05 0.00014759657616636435 6.792341455043881e-05 0.89541604991541 -0.08927804442684605 0.9476216253903021 -0.045529531274044174
 0.00014662488364324347 6.697127558188581e-05 0.00017941742739982605 8.414329896581556e-05 0.9476216253903021 -0.045529531274044174 0.89541604991541 -0.08927804442684605
138000000.0 0.9167405986584508 -0.07309355075333293 0.9577657344479953 -0.0371955899351204 0.00015034070377734906 6.50071444877029e-05 0.00018513819121316626 8.069863434484451e-05
 0.9577657344479953 -0.0371955899351204 0.9167405986584508 -0.07309355075333293 0.00015034070377734906 6.50071444877029e-05 0.000182931626576755 8.047656677023421e-05
 0.00015034070377734906 6.50071444877029e-05 0.00015034070377734906 6.50071444877029e-05 0.8955976908230964 -0.0904942435282287 0.9477272919592392 -0.04613630362393846
 0.0001493744115885712 6.403853532461032e-05 0.000182931626576755 8.047656677023421e-05 0.9477272919592392 -0.04613630362393846 0.8955976908230964 -0.0904942435282287
139000000.0 0.9168985220922747 -0.07407026109936328 0.957849095890115 -0.037679598688876645 0.0001530266112422146 6.198226904663448e-05 0.0001885542785562029 7.693159673307639e-05
 0.957849095890115 -0.037679598688876645 0.9168985220922747 -0.07407026109936328 0.0001530266112422146 6.198226904663448e-05 0.0001863739571623773 7.667186940799057e-05
 0.0001530266112422146 6.198226904663448e-05 0.0001530266112422146 6.198226904663448e-05 0.8957711780959078 -0.09171310334554665 0.9478291313948156 -0.0467443120728762
 0.00015206601794521594 6.0997942704519846e-05 0.0001863739571623773 7.667186940799057e-05 0.9478291313948156 -0.0467443120728762 0.8957711780959078 -0.09171310334554665
140000000.0 0.9170501360294295 -0.07504898166134356 0.9579294562478953 -0.038164485215743324 0.00015565011621790657 5.884891533589644e-05 0.00019189365229308768 7.302747383082636e-05
 0.9579294562478953 -0.038164485215743324 0.9170501360294295 -0.07504898166134356 0.00015565011621790657 5.884891533589644e-05 0.00018973907167676621 7.272932159261488e-05
 0.00015565011621790657 5.884891533589644e-05 0.00015565011621790657 5.884891533589644e-05 0.8959364075592295 -0.09293446810072582 0.947927093741678 -0.04735348034413795
 0.00015469554596825487 5.784961201409068e-05 0.00018973907167676621 7.272932159261488e-05 0.947927093741678 -0.04735348034413795 0.8959364075592295 -0.09293446810072582
141000000.0 0.9171953598201178 -0.07602958751336632 0.9580067773962389 -0.03865018693547709 0.00015820694172094895 5.560736394732498e-05 0.0001951508964248773 6.898656004315556e-05
 0.9580067773962389 -0.03865018693547709 0.9171953598201178 -0.07602958751336632 0.00015820694172094895 5.560736394732498e-05 0.00019302150116775517 6.864923457716986e-05
 0.00015820694172094895 5.560736394732498e-05 0.00015820694172094895 5.560736394732498e-05 0.8960932769332374 -0.09415817433004768 0.9480211299886089 -0.04796372840900738
 0.0001572587441689984 5.4593809798722535e-05 0.00019302150116775517 6.864923457716986e-05 0.9480211299886089 -0.04796372840900738 0.8960932769332374 -0.09415817433004768
142000000.0 0.9173341144971442 -0.07701194759741348 0.9580810221223185 -0.03913663826667547 0.00016069272020415078 5.2258057945809196e-05 0.00019832047849234225 6.480935517633712e-05
 0.9580810221223185 -0.03913663826667547 0.9173341144971442 -0.07701194759741348 0.00016069272020415078 5.2258057945809196e-05 0.00019621566042816557 6.443212767421898e-05
 0.00016069272020415078 5.2258057945809196e-05 0.00016069272020415078 5.2258057945809196e-05 0.8962416863097672 -0.09538405071996363 0.9481111923016357 -0.0485749724072592
 0.00015975127033406104 5.12309638145094e-05 0.00019621566042816557 6.443212767421898e-05 0.9481111923016357 -0.0485749724072592 0.8962416863097672 -0.09538405071996363
143000000.0 0.917466323162726 -0.07799592460433095 0.9581521543167552 -0.03962377057275402 0.00016310299826760585 4.8801611960055115e-05 0.00020139675549554113 6.049657603351129e-05
 0.9581521543167552 -0.03962377057275402 0.917466323162726 -0.07799592460433095 0.00016310299826760585 4.8801611960055115e-05 0.00019931585402979118 6.007873990575756e-05
 0.00016310299826760585 4.8801611960055115e-05 0.00016310299826760585 4.8801611960055115e-05 0.8963815386544005 -0.09661191796566926 0.9481972342694474 -0.049187124578767435
 0.00016216869617484525 4.7761672088857473e-05 0.00019931585402979118 6.007873990575756e-05 0.9481972342694474 -0.049187124578767435 0.8963815386544005 -0.09661191796566926
144000000.0 0.9175919113948974 -0.0789813748738055 0.9582201391742321 -0.04011151211744117 0.00016543324203688656 4.523882133795421e-05 0.0002043739806647703 5.6049168097000286e-05
 0.9582201391742321 -0.04011151211744117 0.9175919113948974 -0.0789813748738055 0.00016543324203688656 4.523882133795421e-05 0.0002023162832165117 5.559004173605965e-05
 0.00016543324203688656 4.523882133795421e-05 0.00016543324203688656 4.523882133795421e-05 0.8965127403333196 -0.09784158865491092 0.9482792111608969 -0.04980009320745512
 0.00016450651264029529 4.418671204800442e-05 0.0002023162832165117 5.559004173605965e-05 0.9482792111608969 -0.04980009320745512 0.8965127403333196 -0.09784158865491092
145000000.0 0.917710807673071 -0.07996814831532567 0.9582849434033175 -0.04059978803076159 0.00016767884324019053 4.1570671326149635e-05 0.0002072463111236915 5.146831724559462e-05
 0.9582849434033175 -0.04059978803076159 0.917710807673071 -0.07996814831532567 0.00016767884324019053 4.1570671326149635e-05 0.00020521105369740057 5.0967246835054026e-05
 0.00016767884324019053 4.1570671326149635e-05 0.00016767884324019053 4.1570671326149635e-05 0.8966352016643088 -0.09907286717959907 0.9483570801942806 -0.050413782578829884
 0.00016676013592465977 4.050704967138935e-05 0.00020521105369740057 5.0967246835054026e-05 0.9483570801942806 -0.050413782578829884 0.8966352016643088 -0.09907286717959907
146000000.0 0.9178229438221597 -0.08095608835217896 0.9583465354451852 -0.041088520286512324 0.00016983512601464944 3.779834622914527e-05 0.00021000781648344602 4.6755461449665346e-05
 0.9583465354451852 -0.041088520286512324 0.9178229438221597 -0.08095608835217896 0.00016983512601464944 3.779834622914527e-05 0.0002079941843786447 4.6211823814347857e-05
 0.00016983512601464944 3.779834622914527e-05 0.00016983512601464944 3.779834622914527e-05 0.8967488374910285 -0.10030554967786644 0.9484308008179756 -0.05102809295240334
 0.00016892491420047851 3.672384862859078e-05 0.0002079941843786447 4.6211823814347857e-05 0.9484308008179756 -0.05102809295240334 0.8967488374910285 -0.10030554967786644
147000000.0 0.9179282554744734 -0.08194503189058364 0.9584048857008208 -0.041577627692254725 0.00017189735447001818 3.392323849896515e-05 0.00021265248840400346 4.1912302381382494e-05
 0.9584048857008208 -0.041577627692254725 0.9179282554744734 -0.08194503189058364 0.00017189735447001818 3.392323849896515e-05 0.00021065961707048033 4.132550787240989e-05
 0.00017189735447001818 3.392323849896515e-05 0.00017189735447001818 3.392323849896515e-05 0.8968535677794791 -0.10153942400927904 0.9485003350018957 -0.051642920550311985
 0.00017099613510504656 3.2838479350230265e-05 0.00021065961707048033 4.132550787240989e-05 0.9485003350018957 -0.051642920550311985 0.8968535677794791 -0.10153942400927904
148000000.0 0.9180266825484189 -0.08293480931609497 0.9584599667662194 -0.04206702589286587 0.0001738607410355016 2.9946957701990114e-05 0.00021517425115582422 3.6940816871692645e-05
 0.9584599667662194 -0.04206702589286587 0.9180266825484189 -0.08293480931609497 0.0001738607410355016 2.9946957701990114e-05 0.0002132012272021211 3.631031227976787e-05
 0.0001738607410355016 2.9946957701990114e-05 0.0001738607410355016 2.9946957701990114e-05 0.8969493182353063 -0.1027742697659483 0.9485656475391098 -0.05225815756348294
 0.00017296903400618012 2.8852527979872595e-05 0.0002132012272021211 3.631031227976787e-05 0.9485656475391098 -0.05225815756348294 0.8969493182353063 -0.1027742697659483
149000000.0 0.918118169742821 -0.08392524451945524 0.9585117536749702 -0.04255662738870335 0.00017572045561250907 2.5871339305199968e-05 0.00021756697321109137 3.184326814006146e-05
 0.9585117536749702 -0.04255662738870335 0.918118169742821 -0.08392524451945524 0.00017572045561250907 2.5871339305199968e-05 0.00021561283557376137 3.116853962940036e-05
 0.00017572045561250907 2.5871339305199968e-05 0.00017572045561250907 2.5871339305199968e-05 0.8970360209403146 -0.10400985832231438 0.9486267063568247 -0.05287369217669709
 0.0001748388030701753 2.4767805149569637e-05 0.00021561283557376137 3.116853962940036e-05 0.9486267063568247 -0.05287369217669709 0.8970360209403146 -0.10400985832231438
150000000.0 0.9182026670454578 -0.08491615495405701 0.9585602241475122 -0.04304634156943429 0.00017747163555262543 2.1698453219701523e-05 0.00021982447988926266 2.6622216717406702e-05
 0.9585602241475122 -0.04304634156943429 0.9182026670454578 -0.08491615495405701 0.00017747163555262543 2.1698453219701523e-05 0.00021788822117016414 2.590279277190144e-05
 0.00017747163555262543 2.1698453219701523e-05 0.00017747163555262543 2.1698453219701523e-05 0.8971136150062947 -0.10524595292637817 0.9486834828358064 -0.05348940861390609
 0.00017660060115138844 2.0586354517355555e-05 0.00021788822117016414 2.590279277190144e-05 0.9486834828358064 -0.05348940861390609 0.8971136150062947 -0.10524595292637817
151000000.0 0.9182801302541752 -0.08590735172718321 0.9586053588462456 -0.04353607476458289 0.00017910939647603022 1.743061203516392e-05 0.00022194056707645977 2.1280530977185065e-05
 0.9586053588462456 -0.04353607476458289 0.9182801302541752 -0.08590735172718321 0.00017910939647603022 1.743061203516392e-05 0.00022002113505503054 2.0515985349517287e-05
 0.00017910939647603022 1.743061203516392e-05 0.00017910939647603022 1.743061203516392e-05 0.8971820472439381 -0.10648230883512455 0.9487359521371449 -0.05410518720513979
 0.00017824956451884975 1.6310461000752134e-05 0.00022002113505503054 2.0515985349517287e-05 0.9487359521371449 -0.05410518720513979 0.8971820472439381 -0.10648230883512455
152000000.0 0.918350521508707 -0.08689863972715405 0.9586471416355474 -0.044025730311817925 0.00018062884394095874 1.3070378874685897e-05 0.000223909016032244 1.582139718434678e-05
 0.9586471416355474 -0.044025730311817925 0.918350521508707 -0.08689863972715405 0.00018062884394095874 1.3070378874685897e-05 0.0002220053153592962 1.5011351837892607e-05
 0.00018062884394095874 1.3070378874685897e-05 0.00018062884394095874 1.3070378874685897e-05 0.8972412728443174 -0.10771867349683646 0.9487840935351421 -0.05472090447632554
 0.00017978081843072566 1.1942658636249168e-05 0.0002220053153592962 1.5011351837892607e-05 0.9487840935351421 -0.05472090447632554 0.8972412728443174 -0.10771867349683646
153000000.0 0.9184138098310594 -0.08788981778844862 0.9586855598456228 -0.04451520864397716 0.00018202508596956333 8.620574795741937e-06 0.0002257236092905835 1.0248328966908224e-05
 0.9586855598456228 -0.04451520864397716 0.9184138098310594 -0.08788981778844862 0.00018202508596956333 8.620574795741937e-06 0.00022383450336967042 9.392456999400107e-06
 0.00018202508596956333 8.620574795741937e-06 0.00018202508596956333 8.620574795741937e-06 0.8972912560700808 -0.10895478678290384 0.9488278907549139 -0.05533643326328577
 0.00018118948956225825 7.485737990849407e-06 0.00022383450336967042 9.392456999400107e-06 0.9488278907549139 -0.05533643326328577 0.8972912560700808 -0.10895478678290384
154000000.0 0.9184699716720817 -0.0888806788967939 0.9587206045390059 -0.04500440739578884 0.00018329324642970526 4.084285659276396e-06 0.00022737814765430608 4.5651761103224e-06
 0.9587206045390059 -0.04500440739578884 0.9184699716720817 -0.0888806788967939 0.00018329324642970526 4.084285659276396e-06 0.00022550246071612742 3.6632046473558868e-06
 0.00018329324642970526 4.084285659276396e-06 0.00018329324642970526 4.084285659276396e-06 0.8973319709531592 -0.11019038127161843 0.9488673323131566 -0.0559516428511343
 0.0001824707192870259 2.942753048185691e-06 0.00022550246071612742 3.6632046473558868e-06 0.9488673323131566 -0.0559516428511343 0.8973319709531592 -0.11019038127161843
155000000.0 0.9185189914615619 -0.0898710104360994 0.9587522707783788 -0.04549322153118272 0.0001844284792657607 -5.351316141944281e-07 0.00022886646827404092 -1.2238674292659065e-06
 0.9587522707783788 -0.04549322153118272 0.9185189914615619 -0.0898710104360994 0.0001844284792657607 -5.351316141944281e-07 0.00022700298764867464 -2.1721543836539513e-06
 0.0001844284792657607 -5.351316141944281e-07 0.0001844284792657607 -5.351316141944281e-07 0.8973634019954774 -0.11142518258629121 0.9489024118603493 -0.05656639914020583
 0.00018361967780497696 -1.6829725114985354e-06 0.00022700298764867464 -2.1721543836539513e-06 0.9489024118603493 -0.05656639914020583 0.8973634019954774 -0.11142518258629121
156000000.0 0.9185608621589318 -0.09086059447897106 0.9587805578942669 -0.0459815434920177 0.00018542598356449593 -5.234043485359128e-06 0.00023018246379359996 -7.1142564002845125e-06
 0.9587805578942669 -0.0459815434920177 0.9185608621589318 -0.09086059447897106 0.00018542598356449593 -5.234043485359128e-06 0.0002283299423845704 -8.109015169579476e-06
 0.00018542598356449593 -5.234043485359128e-06 0.00018542598356449593 -5.234043485359128e-06 0.8973855448687855 -0.11265890978982158 0.948933128522508 -0.05718056483956246
 0.00018463157910370766 -6.387839720974004e-06 0.0002283299423845704 -8.109015169579476e-06 0.948933128522508 -0.05718056483956246 0.8973855448687855 -0.11265890978982158
157000000.0 0.9185955858014032 -0.09184920812237654 0.9588054697510249 -0.046469263368963704 0.00018628101943445402 -1.000853501986916e-05 0.00023132010253395556 -1.3101088129721034e-05
 0.9588054697510249 -0.046469263368963704 0.9185955858014032 -0.09184920812237654 0.00018628101943445402 -1.000853501986916e-05 0.0002294772614972649 -1.4142412641857484e-05
 0.00018628101943445402 -1.000853501986916e-05 0.00018628101943445402 -1.000853501986916e-05 0.8973984071094186 -0.11389127583762927 0.9489594872404348 -0.05779399968900719
 0.00018550169673189448 -1.116796951095705e-05 0.0002294772614972649 -1.4142412641857484e-05 0.9489594872404348 -0.05779399968900719 0.8973984071094186 -0.11389127583762927
158000000.0 0.9186231740460834 -0.09283662386981685 0.9588270150094083 -0.04695626909517478 0.00018698892466913043 -1.4854405982759559e-05 0.00023227344967747686 -1.9179097508011177e-05
 0.9588270150094083 -0.04695626909517478 0.9186231740460834 -0.09283662386981685 0.00018698892466913043 -1.4854405982759559e-05 0.00023043898130774404 -2.0267016658447565e-05
 0.00018698892466913043 -1.4854405982759559e-05 0.00018698892466913043 -1.4854405982759559e-05 0.8974020088034461 -0.11512198809056123 0.948981499104243 -0.058406560710386364
 0.00018622538035568284 -1.601919875765295e-05 0.00023043898130774404 -2.0267016658447565e-05 0.948981499104243 -0.058406560710386364 0.8974020088034461 -0.11512198809056123
159000000.0 0.9186436487023887 -0.09382261006113009 0.9588452073839154 -0.04744244666326566 0.00018754513215555257 -1.9767167892078084e-05 0.0002330366894029447 -2.5342653198057474e-05
 0.9588452073839154 -0.04744244666326566 0.9186436487023887 -0.09382261006113009 0.00018754513215555257 -1.9767167892078084e-05 0.00023120926022770816 -2.6477128314891546e-05
 0.00018754513215555257 -1.9767167892078084e-05 0.00018754513215555257 -1.9767167892078084e-05 0.8973963832573629 -0.11635074888907779 0.9489991816808024 -0.05901810248882463
 0.00018679807306022156 -2.093707728111148e-05 0.00023120926022770816 -2.6477128314891546e-05 0.9489991816808024 -0.05901810248882463 0.8973963832573629 -0.11635074888907779
160000000.0 0.9186570422508133 -0.09480693135077228 0.9588600658929418 -0.04792768036597275 0.0001879451879807483 -2.474204212032865e-05 0.00023360414791014748 -3.158575518160823e-05
 0.9588600658929418 -0.04792768036597275 0.9186570422508133 -0.09480693135077228 0.0001879451879807483 -2.474204212032865e-05 0.00023178240199219524 -3.276667760926604e-05
 0.0001879451879807483 -2.474204212032865e-05 0.0001879451879807483 -2.474204212032865e-05 0.897381577649179 -0.11757725618964292 0.9490125593315764 -0.05962847748433455
 0.00018721532934945465 -2.5916865882688765e-05 0.00023178240199219524 -3.276667760926604e-05 0.9490125593315764 -0.05962847748433455 0.897381577649179 -0.11757725618964292
161000000.0 0.918663398343904 -0.09578934923511374 0.9588716150997194 -0.04841185306072158 0.00018818477017908144 -2.9773959131493423e-05 0.00023397031726065005 -3.790203375507599e-05
 0.9588716150997194 -0.04841185306072158 0.918663398343904 -0.09578934923511374 0.00018818477017908144 -2.9773959131493423e-05 0.0002321528797069517 -3.912922257366527e-05
 0.00018818477017908144 -2.9773959131493423e-05 0.00018818477017908144 -2.9773959131493423e-05 0.8973576536544775 -0.11880120426383517 0.9490216635182134 -0.06023753637405588
 0.00018747283378782882 -3.09535355091148e-05 0.0002321528797069517 -3.912922257366527e-05 0.9490216635182134 -0.06023753637405588 0.8973576536544775 -0.11880120426383517
162000000.0 0.918662772285085 -0.09676962262894798 0.9588798853418824 -0.04889484645815491 0.0001882597080536128 -3.485755893959032e-05 0.0002341298799487376 -4.428475008445664e-05
 0.9588798853418824 -0.04889484645815491 0.918662772285085 -0.09676962262894798 0.0001882597080536128 -3.485755893959032e-05 0.000232315360623164 -4.5557949982341284e-05
 0.0001882597080536128 -3.485755893959032e-05 0.0001882597080536128 -3.485755893959032e-05 0.8973246880417812 -0.12002228446023731 0.9490265330931187 -0.06084512842514936
 0.0001875664202177994 -3.6041767628905044e-05 0.000232315360623164 -4.5557949982341284e-05 0.9490265330931187 -0.06084512842514936 0.8973246880417812 -0.12002228446023731
163000000.0 0.9186552314808003 -0.09774750849102753 0.9588849129474499 -0.04937654143448632 0.00018816600199461576 -3.998719287184646e-05 0.00023407773410368755 -5.0726798425231815e-05
 0.9588849129474499 -0.04937654143448632 0.9186552314808003 -0.09774750849102753 0.00018816600199461576 -3.998719287184646e-05 0.00023226473153922634 -5.204567774273953e-05
 0.00018816600199461576 -3.998719287184646e-05 0.00018816600199461576 -3.998719287184646e-05 0.8972827732313466 -0.12124018602865838 0.949027214572141 -0.06145110189812622
 0.00018749209147703944 -4.117595590403713e-05 0.00023226473153922634 -5.204567774273953e-05 0.949027214572141 -0.06145110189812622 0.8972827732313466 -0.12124018602865838
164000000.0 0.9186408558613023 -0.09872276249803254 0.9588867404349241 -0.04985681836734342 0.00018789984370824335 -4.515692671557865e-05 0.0002338090192115523 -5.7220710107909355e-05
 0.9588867404349241 -0.04985681836734342 0.9186408558613023 -0.09872276249803254 0.00018789984370824335 -4.515692671557865e-05 0.0002319961247161647 -5.858485907032113e-05
 0.00018789984370824335 -4.515692671557865e-05 0.00018789984370824335 -4.515692671557865e-05 0.8972320178113455 -0.12245459700570316 0.9490237623864183 -0.062055304480128554
 0.00018724603952916094 -4.63502092358875e-05 0.0002319961247161647 -5.858485907032113e-05 0.9490237623864183 -0.062055304480128554 0.8972320178113455 -0.12245459700570316
165000000.0 0.9186197382653047 -0.09969513976594112 0.9588854166951705 -0.050335557494544776 0.00018745763675823393 -5.036054532269379e-05 0.0002333191422317179 -6.375865938310542e-05
 0.9588854166951705 -0.050335557494544776 0.9186197382653047 -0.09969513976594112 0.00018745763675823393 -5.036054532269379e-05 0.00023150494418034626 -6.51675885411765e-05
 0.00018745763675823393 -5.036054532269379e-05 0.00018745763675823393 -5.036054532269379e-05 0.8971725470052724 -0.12366520516012444 0.9490162391103828 -0.06265758374739852
 0.00018682466591168727 -5.15583562593135e-05 0.00023150494418034626 -6.51675885411765e-05 0.9490162391103828 -0.06265758374739852 0.8971725470052724 -0.12366520516012444
166000000.0 0.9185919847836532 -0.10066439561729267 0.9588809971527169 -0.050812639295024296 0.00018683601731358547 -5.55915587393108e-05 0.00023260380397079376 -7.03324712117337e-05
 0.9588809971527169 -0.050812639295024296 0.9185919847836532 -0.10066439561729267 0.00018683601731358547 -5.55915587393108e-05 0.00023078689227433119 -7.178561010795063e-05
 0.00018683601731358547 -5.55915587393108e-05 0.00018683601731358547 -5.55915587393108e-05 0.8971045030843563 -0.12487169899577591 0.9490047156628817 -0.06325778765586337
 0.00018622460239508867 -5.679395135243362e-05 0.00023078689227433119 -7.178561010795063e-05 0.9490047156628817 -0.06325778765586337 0.8971045030843563 -0.12487169899577591
167000000.0 0.9185577150571455 -0.10163028639235516 0.9588735439040931 -0.05128794489087742 0.00018603187498547993 -6.084320992033993e-05 0.00023165902556410205 -7.693363107591771e-05
 0.9588735439040931 -0.05128794489087742 0.9185577150571455 -0.10163028639235516 0.00018603187498547993 -6.084320992033993e-05 0.00022983799630438292 -7.8430327154492e-05
 0.00018603187498547993 -6.084320992033993e-05 0.00018603187498547993 -6.084320992033993e-05 0.8970280457187547 -0.12607376880934604 0.9489892714783746 -0.06385576505846378
 0.00018544273173706972 -6.205028222207464e-05 0.00022983799630438292 -7.8430327154492e-05 0.9489892714783746 -0.06385576505846378 0.8970280457187547 -0.12607376880934604
168000000.0 0.9185170625236654 -0.10259257030168462 0.9588631258308629 -0.05176135646924929 0.00018504237362755165 -6.610848407990615e-05 0.00023048117490335652 -8.35532968746512e-05
 0.9588631258308629 -0.05176135646924929 0.9185170625236654 -0.10259257030168462 0.00018504237362755165 -6.610848407990615e-05 0.00022865463512144427 -8.509281465287725e-05
 0.00018504237362755165 -6.610848407990615e-05 0.00018504237362755165 -6.610848407990615e-05 0.8969433522613721 -0.12727110779938694 0.9489699946452117 -0.0644513662475151
 0.00018447620840712284 -6.732037911599256e-05 0.00022865463512144427 -8.509281465287725e-05 0.9489699946452117 -0.0644513662475151 0.8969433522613721 -0.12727110779938694
169000000.0 0.9184701746098792 -0.10355100831704683 0.9588498186850466 -0.05223275772252738 0.00018386497196503442 -7.138011971829242e-05 0.00022906699283827648 -9.018231295502398e-05
 0.9588498186850466 -0.05223275772252738 0.9184701746098792 -0.10355100831704683 0.00018386497196503442 -7.138011971829242e-05 0.0002272335654615188 -9.176383347307675e-05
 0.00018386497196503442 -7.138011971829242e-05 0.00018386497196503442 -7.138011971829242e-05 0.8968506179582841 -0.12846341322247096 0.948946982008042 -0.06504444352007205
 0.00018332247914781605 -7.25970257028572e-05 0.0002272335654615188 -9.176383347307675e-05 0.948946982008042 -0.06504444352007205 0.8968506179582841 -0.12846341322247096
170000000.0 0.918417212862885 -0.10450536509713236 0.9588337051447023 -0.05270203430504591 0.00018249744391056613 -7.665062135462057e-05 0.0002274136189700895 -9.68112263150363e-05
 0.9588337051447023 -0.05270203430504591 0.918417212862885 -0.10450536509713236 0.00018249744391056613 -7.665062135462057e-05 0.00022557194786160665 -9.843384688054575e-05
 0.00018249744391056613 -7.665062135462057e-05 0.00018249744391056613 -7.665062135462057e-05 0.8967500560799678 -0.12965038759162031 0.9489203392315307 -0.06563485176391654
 0.0001819793032315195 -7.787277164962833e-05 0.00022557194786160665 -9.843384688054575e-05 0.9489203392315307 -0.06563485176391654 0.8967500560799678 -0.12965038759162031
171000000.0 0.9183583530174113 -0.10545540994396313 0.9588148748375438 -0.05316907430423746 0.00018093789841764862 -8.19122739818412e-05 0.00022551861684636337 -0.00010343030499771943
 0.9588148748375438 -0.05316907430423746 0.9183583530174113 -0.10545540994396313 0.00018093789841764862 -8.19122739818412e-05 0.00022366737195885018 -0.00010509303924052763
 0.00018093789841764862 -8.19122739818412e-05 0.00018093789841764862 -8.19122739818412e-05 0.8966418979678259 -0.13083173991147212 0.9488901808226953 -0.06622244906147169
 0.00018044477226448742 -8.313994691340376e-05 0.00022366737195885018 -0.00010509303924052763 0.9488901808226953 -0.06622244906147169 0.8966418979678259 -0.13083173991147212
172000000.0 0.9182937849944309 -0.10640091778535331 0.9587934243306069 -0.05363376872391848 0.0001791847987171368 -8.71571592468479e-05 0.0002233799983595924 -0.0001100295586785637
 0.9587934243306069 -0.05363376872391848 0.9182937849944309 -0.10640091778535331 0.0001791847987171368 -8.71571592468479e-05 0.00022151788097356928 -0.00011173133692994407
 0.0001791847987171368 -8.71571592468479e-05 0.0001791847987171368 -8.71571592468479e-05 0.8965263929908815 -0.1320071869439576 0.9488566301093536 -0.06680709730859638
 0.0001787173293845613 -8.839067775116583e-05 0.00022151788097356928 -0.00011173133692994407 0.9488566301093536 -0.06680709730859638 0.8965263929908815 -0.1320071869439576
173000000.0 0.9182237128273913 -0.10734167017827696 0.9587694570841582 -0.05409601197714538 0.00017723698077782264 -9.237717334375695e-05 0.00022099624714667866 -0.00011659876142926664
 0.9587694570841582 -0.05409601197714538 0.9182237128273913 -0.10734167017827696 0.00017723698077782264 -9.237717334375695e-05 0.0002191219951716452 -0.00011833843143855942
 0.00017723698077782264 -9.237717334375695e-05 0.00017723698077782264 -9.237717334375695e-05 0.8964038084079713 -0.1331764544976285 0.9488198191724133 -0.0673886628449091
 0.00017679578769441812 -9.361690443617929e-05 0.0002191219951716452 -0.00011833843143855942 0.9488198191724133 -0.0673886628449091 0.8964038084079713 -0.1331764544976285
174000000.0 0.9181483545126525 -0.10827745632749308 0.9587430833682143 -0.05455570238582367 0.00017509367082936723 -9.75640465927454e-05 0.0002183663407830811 -0.00012312747662072274
 0.9587430833682143 -0.05455570238582367 0.9181483545126525 -0.10827745632749308 0.00017509367082936723 -9.75640465927454e-05 0.00021647873409842849 -0.0001249038046208206
 0.00017509367082936723 -9.75640465927454e-05 0.00017509367082936723 -9.75640465927454e-05 0.8962744291313219 -0.13433927873313709 0.9487798887299904 -0.06796701709198237
 0.0001746793477694303 -9.881040065424635e-05 0.00021647873409842849 -0.0001249038046208206 0.9487798887299904 -0.06796701709198237 0.8962744291313219 -0.13433927873313709
175000000.0 0.9180679417812039 -0.10920807411331461 0.9587144201403052 -0.05501274268405251 0.00017275450178465545 -0.00010270936466045466 0.0002154897715641668 -0.00012960508390717304
 0.9587144201403052 -0.05501274268405251 0.9180679417812039 -0.10920807411331461 0.00017275450178465545 -0.00010270936466045466 0.0002135876373752227 -0.00013141675603857875
 0.00017275450178465545 -0.00010270936466045466 0.00017275450178465545 -0.00010270936466045466 0.8961385573880166 -0.1354954074767979 0.9487369879716577 -0.06854203719546376
 0.0001723676140779629 -0.00010396279453673742 0.0002135876373752227 -0.00013141675603857875 0.9487369879716577 -0.06854203719546376 0.8961385573880166 -0.1354954074767979
176000000.0 0.9179827197892412 -0.11013333112198563 0.9586835908833475 -0.055467040521958694 0.0001702195283992443 -0.00010780459136104764 0.00021236656566734675 -0.00013602080821178714
 0.9586835908833475 -0.055467040521958694 0.9179827197892412 -0.11013333112198563 0.0001702195283992443 -0.00010780459136104764 0.00021044878385057122 -0.00013786643231306805
 0.0001702195283992443 -0.00010780459136104764 0.0001702195283992443 -0.00010780459136104764 0.8959965122765713 -0.13664460153363425 0.9486912743414619 -0.06911360666692523
 0.00016986061015246195 -0.00010906559127049044 0.00021044878385057122 -0.00013786643231306805 0.9486912743414619 -0.06911360666692523 0.8959965122765713 -0.13664460153363425
177000000.0 0.917892946725786 -0.11105304567174641 0.9586507254028142 -0.055918508966613614 0.00016748924100806796 -0.00011284109295972774 0.00020899730049206286 -0.0001423637506118762
 0.9586507254028142 -0.055918508966613614 0.917892946725786 -0.11105304567174641 0.00016748924100806796 -0.00011284109295972774 0.00020706280890222083 -0.00014424185838227016
 0.00016748924100806796 -0.00011284109295972774 0.00016748924100806796 -0.00011284109295972774 0.8958486292166212 -0.13778663599085883 0.9486429132687445 -0.06968161602102603
 0.0001671587923520931 -0.00011411019720748117 0.00020706280890222083 -0.00014424185838227016 0.9486429132687445 -0.06968161602102603 0.8958486292166212 -0.13778663599085883
178000000.0 0.9177988933361612 -0.11196704782734893 0.958615959582675 -0.056367066996459304 0.00016456457768402195 -0.00011781016388314913 0.00020538311998071586 -0.00014862292099978455
 0.958615959582675 -0.056367066996459304 0.9177988933361612 -0.11196704782734893 0.00016456457768402195 -0.00011781016388314913 0.00020343091969183766 -0.00015053197053748087
 0.00016456457768402195 -0.00011781016388314913 0.00016456457768402195 -0.00011781016388314913 0.8956952592905776 -0.1389213015023521 0.9485920778462048 -0.07024596340337597
 0.00016426306206205804 -0.00011908794537986882 0.00020343091969183766 -0.00015053197053748087 0.9485920778462048 -0.07024596340337597 0.8956952592905776 -0.1389213015023521
179000000.0 0.917700842360839 -0.11287518039552492 0.9585794350999604 -0.056812639985564274 0.00016144693466957086 -0.00012270305372387577 0.0002015257477322738 -0.00015478727237353443
 0.9585794350999604 -0.056812639985564274 0.917700842360839 -0.11287518039552492 0.00016144693466957086 -0.00012270305372387577 0.00019955490818340335 -0.00015672565109077963
 0.00016144693466957086 -0.00012270305372387577 0.00016144693466957086 -0.00012270305372387577 0.8955367684770165 -0.1400484055444095 0.9485389484550981 -0.07080655520435433
 0.00016117477618112785 -0.0001239901223088233 0.00019955490818340335 -0.00015672565109077963 0.9485389484550981 -0.07080655520435433 0.8955367684770165 -0.1400484055444095
180000000.0 0.9175990878898995 -0.11377729989372502 0.9585412990981252 -0.057255160173933325 0.00015813817494109673 -0.00012751099540917683 0.00019742749773158839 -0.00016084573658989754
 0.9585412990981252 -0.057255160173933325 0.9175990878898995 -0.11377729989372502 0.00015813817494109673 -0.00012751099540917683 0.00019543716174772816 -0.0001628117645035771
 0.00015813817494109673 -0.00012751099540917683 0.00015813817494109673 -0.00012751099540917683 0.8953735367765402 -0.141167773632835 0.9484837123379282 -0.07136330665404017
 0.00015789575575739137 -0.00012880799597872946 0.00019543716174772816 -0.0001628117645035771 0.9484837123379282 -0.07136330665404017 0.8953735367765402 -0.141167773632835
181000000.0 0.9174939346341261 -0.1146732774843437 0.9585017038198035 -0.05769456712006201 0.0001546406347763647 -0.000132225234388215 0.00019309128253137853 -0.00016678726139202605
 0.9585017038198035 -0.05769456712006201 0.9174939346341261 -0.1146732774843437 0.0001546406347763647 -0.000132225234388215 0.00019108067118969166 -0.00016877919478577654
 0.0001546406347763647 -0.000132225234388215 0.0001546406347763647 -0.000132225234388215 0.8952059572318424 -0.14227925049136395 0.9484265631194844 -0.07191614239336185
 0.00015442829264274865 -0.00013353284483218705 0.00019108067118969166 -0.00016877919478577654 0.9484265631194844 -0.07191614239336185 0.8952059572318424 -0.14227925049136395
182000000.0 0.9173856971145351 -0.11556299986661896 0.9584608061999106 -0.05813080813191878 0.00015095712820815724 -0.00013683705867638388 0.00018852061874034332 -0.0001726008485044859
 0.9584608061999106 -0.05813080813191878 0.9173856971145351 -0.11556299986661896 0.00015095712820815724 -0.00013683705867638388 0.00018648903605157898 -0.00017461688395571732
 0.00015095712820815724 -0.00013683705867638388 0.00015095712820815724 -0.00013683705867638388 0.8950344348447499 -0.14338270116141855 0.9483677002775827 -0.07246499701659141
 0.00015077515404922216 -0.0001381559876259564 0.00018648903605157898 -0.00017461688395571732 0.9483677002775827 -0.07246499701659141 0.8950344348447499 -0.14338270116141855
183000000.0 0.917274698772972 -0.11644637011847236 0.9584187674204615 -0.05856383867257813 0.00014709094926174983 -0.00014133782958145665 0.0001837196296898223 -0.00017827559257083266
 0.9584187674204615 -0.05856383867257813 0.917274698772972 -0.11644637011847236 0.00014709094926174983 -0.00014133782958145665 0.00018166646706510462 -0.00018031387133332107
 0.00014709094926174983 -0.00014133782958145665 0.00014709094926174983 -0.00014133782958145665 0.8948593853940552 -0.14447801204334396 0.9483073285653697 -0.07300981558037188
 0.00014693958490463916 -0.00014266881397393294 0.00018166646706510462 -0.00018031387133332107 0.9483073285653697 -0.07300981558037188 0.8948593853940552 -0.14447801204334396
184000000.0 0.9171612710071998 -0.11732330848071026 0.9583757524288574 -0.058993622736823625 0.00014304587189035048 -0.0001457190129235645 0.00017869304517269073 -0.0001838007206930769
 0.9583757524288574 -0.058993622736823625 0.9171612710071998 -0.11732330848071026 0.00014304587189035048 -0.0001457190129235645 0.00017661778564626292 -0.0001858593334230506
 0.00014304587189035048 -0.0001457190129235645 0.00014304587189035048 -0.0001457190129235645 0.8946812341589999 -0.14556509185952393 0.9482456573875697 -0.07355055407459649
 0.00014292530792154383 -0.00014706281539059187 0.00017661778564626292 -0.0001858593334230506 0.9482456573875697 -0.07355055407459649 0.8946812341589999 -0.14556509185952393
185000000.0 0.9170457521347194 -0.11819375307627093 0.9583319294218063 -0.05942013319516635 0.0001388261475407312 -0.00014997221055011928 0.00017344619817150745 -0.00018916563231885684
 0.9583319294218063 -0.05942013319516635 0.9170457521347194 -0.11819375307627093 0.0001388261475407312 -0.00014997221055011928 0.00017134842035075674 -0.00019124262412977493
 0.0001388261475407312 -0.00014997221055011928 0.0001388261475407312 -0.00014997221055011928 0.8945004145542885 -0.14664387253016628 0.9481829001335456 -0.0740871798506427
 0.0001387365213111584 -0.00015132961663743348 0.00017134842035075674 -0.00019124262412977493 0.9481829001335456 -0.0740871798506427 0.8945004145542885 -0.14664387253016628
186000000.0 0.9169284862903522 -0.11905766055755111 0.9582874692974019 -0.059843352101909504 0.00013443650030086333 -0.00015408919193782397 0.00016798501851811385 -0.0001943599392111271
 0.9582874692974019 -0.059843352101909504 0.9169284862903522 -0.11905766055755111 0.00013443650030086333 -0.00015408919193782397 0.00016586440023322026 -0.00019645331503967577
 0.00013443650030086333 -0.00015408919193782397 0.00013443650030086333 -0.00015408919193782397 0.8943173666835226 -0.14771430995304963 0.9481192734705391 -0.0746196720027171
 0.0001343778940936452 -0.000155461007165961 0.00016586440023322026 -0.00019645331503967577 0.9481192734705391 -0.0746196720027171 0.8943173666835226 -0.14771430995304963
187000000.0 0.9168098222633546 -0.11991500667529403 0.9582425450782687 -0.06026327096411725 0.00012988211960216758 -0.00015806192566713325 0.00016231602345355027 -0.0001993735052269863
 0.9582425450782687 -0.06026327096411725 0.9168098222633546 -0.11991500667529403 0.00012988211960216758 -0.00015806192566713325 0.00016017234508040163 -0.00020148123549022104
 0.00012988211960216758 -0.00015806192566713325 0.00012988211960216758 -0.00015806192566713325 0.8941325358188732 -0.14877638467914708 0.94805499660091 -0.07514802169836361
 0.0001298545589765792 -0.00015944897244389594 0.00016017234508040163 -0.00020148123549022104 0.94805499660091 -0.07514802169836361 0.8941325358188732 -0.14877638467914708
188000000.0 0.9166901122805535 -0.12076578676305737 0.9581973313090132 -0.06067989096861326 0.00012516865047077045 -0.000161882610550068 0.0001564463050850134 -0.00020419648562708544
 0.9581973313090132 -0.06067989096861326 0.9166901122805535 -0.12076578676305737 0.00012516865047077045 -0.000161882610550068 0.00015427945251660292 -0.0002063165121481668
 0.00012516865047077045 -0.000161882610550068 0.00012516865047077045 -0.000161882610550068 0.8939463708157058 -0.14983010247678305 0.9479902904876272 -0.07567223245455805
 0.00012517210279517623 -0.00016328572494681817 0.00015427945251660292 -0.0002063165121481668 0.9479902904876272 -0.07567223245455805 0.8939463708157058 -0.14983010247678305
189000000.0 0.9165697107426329 -0.1216100161319017 0.958152003431539 -0.061093223164451586 0.00012030218134460458 -0.00016554370619033146 0.00015038351476521903 -0.0002088193656350858
 0.958152003431539 -0.061093223164451586 0.9165697107426329 -0.1216100161319017 0.00012030218134460458 -0.00016554370619033146 0.0001481934820085749 -0.00021094960781271912
 0.00012030218134460458 -0.00016554370619033146 0.00012030218134460458 -0.00016554370619033146 0.893759322471661 -0.15087549477782383 0.947925377052656 -0.07619232035621781
 0.00012033655453013299 -0.00016696373459538307 0.0001481934820085749 -0.00021094960781271912 0.947925377052656 -0.07619232035621781 0.893759322471661 -0.15087549477782383
190000000.0 0.916448972921298 -0.12244773037064179 0.9581067371420564 -0.06150328859864684 0.00011528922949598497 -0.00016903796275530926 0.00014413584444854078 -0.00021323299796798242
 0.9581067371420564 -0.06150328859864684 0.916448972921298 -0.12244773037064179 0.00011528922949598497 -0.00016903796275530926 0.0001419227358263229 -0.0002153713591625153
 0.00011528922949598497 -0.00016903796275530926 0.00011528922949598497 -0.00016903796275530926 0.8935718418404119 -0.1519126190003447 0.9478604783532287 -0.07670831421442009
 0.00011535437094160354 -0.00017047575841880666 0.0001419227358263229 -0.0002153713591625153 0.9478604783532287 -0.07670831421442009 0.8935718418404119 -0.1519126190003447
191000000.0 0.9163282536255223 -0.12327898554777227 0.958061707733867 -0.061910118403339175 0.00011013672412212872 -0.0001723584497428087 0.0001377120051072771 -0.00021742863906282648
 0.958061707733867 -0.061910118403339175 0.9163282536255223 -0.12327898554777227 0.00011013672412212872 -0.0001723584497428087 0.00013547603704548413 -0.00021957301317000193
 0.00011013672412212872 -0.0001723584497428087 0.00011013672412212872 -0.0001723584497428087 0.8933843785109128 -0.15294155874324322 0.9477958157412766 -0.0772202556621204
 0.0001102324198805529 -0.00017381486922847755 0.00013547603704548413 -0.00021957301317000193 0.9477958157412766 -0.0772202556621204 0.8933843785109128 -0.15294155874324322
192000000.0 0.9162079058455218 -0.1241038583120117 0.9580170894301872 -0.06231375383297903 0.00010485198718857687 -0.00017549858353134627 0.00013112120231986905 -0.00022139798373350036
 0.9580170894301872 -0.06231375383297903 0.9162079058455218 -0.1241038583120117 0.00010485198718857687 -0.00017549858353134627 0.00012886270470561338 -0.00022354626191514816
 0.00010485198718857687 -0.00017549858353134627 0.00010485198718857687 -0.00017549858353134627 0.89319737886344 -0.1539624238493699 0.9477316090115435 -0.07772819918570416
 0.00010497796136111776 -0.00017697448309137955 0.00012886270470561338 -0.00022354626191514816 0.9477316090115435 -0.07772819918570416 0.89319737886344 -0.1539624238493699
193000000.0 0.9160882793834144 -0.12492244588928827 0.9579730547114281 -0.06271424625055268 9.944271213233201e-05 -0.00017845215351135045 0.0001243731091704583 -0.0002251331980026234
 0.9579730547114281 -0.06271424625055268 0.9160882793834144 -0.12492244588928827 9.944271213233201e-05 -0.00017845215351135045 0.00012209252626645603 -0.00022728327554210516
 9.944271213233201e-05 -0.00017845215351135045 9.944271213233201e-05 -0.00017845215351135045 0.8930112843140785 -0.15497535033489881 0.9476680755440655 -0.07823221209126409
 9.959862649936568e-05 -0.00017994838540143587 0.00012209252626645603 -0.00022728327554210516 0.9476680755440655 -0.07823221209126409 0.8930112843140785 -0.15497535033489881
194000000.0 0.9159697194797181 -0.12573486597490444 0.9579297736414519 -0.063111657062321 9.391694055234723e-05 -0.00018121334660575901 0.00011747783662536277 -0.00022862694986831522
 0.9579297736414519 -0.063111657062321 0.9159697194797181 -0.12573486597490444 9.391694055234723e-05 -0.00018121334660575901 0.00011517572753062321 -0.000230776733117357
 9.391694055234723e-05 -0.00018121334660575901 9.391694055234723e-05 -0.00018121334660575901 0.8928265295595292 -0.1559805001838601 0.9476054294468136 -0.07873237440508264
 9.410239444459579e-05 -0.00018273075535785063 0.00011517572753062321 -0.000230776733117357 0.9476054294468136 -0.07873237440508264 0.8928265295595292 -0.1559805001838601
195000000.0 0.9158525654449872 -0.12654125652056003 0.9578874131973527 -0.06350605760100711 8.828303703452307e-05 -0.0001837767700019956 0.00011044590157649515 -0.0002318724377831919
 0.9578874131973527 -0.06350605760100711 0.9158525654449872 -0.12654125652056003 8.828303703452307e-05 -0.0001837767700019956 0.00010812294022564335 -0.00023401985116584302
 8.828303703452307e-05 -0.0001837767700019956 8.828303703452307e-05 -0.0001837767700019956 0.89264354083419 -0.1569780610079677 0.9475438807043276 -0.0792287787083898
 8.849756744878318e-05 -0.0001853161886728744 0.00010812294022564335 -0.00023401985116584302 0.9475438807043276 -0.0792287787083898 0.89264354083419 -0.1569780610079677
196000000.0 0.9157371493058554 -0.12734177541685773 0.9578461366073229 -0.06389752895783274 8.254966227622862e-05 -0.00018613747193304726 0.00010328819276401576 -0.00023486341664341734
 0.9578461366073229 -0.06389752895783274 0.9157371493058554 -0.12734177541685773 8.254966227622862e-05 -0.00018613747193304726 0.0001009451674607121 -0.00023700640968228744
 8.254966227622862e-05 -0.00018613747193304726 8.254966227622862e-05 -0.00018613747193304726 0.8924627341914075 -0.15796824557310382 0.9474836343381531 -0.07972152990706634
 8.279274423759319e-05 -0.00018769971834699863 0.0001009451674607121 -0.00023700640968228744 0.9474836343381531 -0.07972152990706634 0.8924627341914075 -0.15796824557310382
197000000.0 0.9156237944746607 -0.12813660007285993 0.957806102701082 -0.06428616176426664 7.672574469132379e-05 -0.0001882909603630995 9.601593481030246e-05 -0.00023759422110854883
 0.957806102701082 -0.06428616176426664 0.9156237944746607 -0.12813660007285993 7.672574469132379e-05 -0.0001882909603630995 9.365374729329519e-05 -0.00023973077543819937
 7.672574469132379e-05 -0.0001882909603630995 7.672574469132379e-05 -0.0001882909603630995 0.8922845138205879 -0.15895129119502094 0.9474248895847751 -0.08021074493754797
 7.699679186232985e-05 -0.0001898768333671534 9.365374729329519e-05 -0.00023973077543819937 0.9474248895847751 -0.08021074493754797 0.8922845138205879 -0.15895129119502094
198000000.0 0.9155128144516057 -0.12892592689518814 0.9577674652772458 -0.06467205592479781 7.082045069045805e-05 -0.0001902332194526594 8.864065061430094e-05 -0.00024005978609798107
 0.9577674652772458 -0.06467205592479781 0.9155128144516057 -0.12892592689518814 7.082045069045805e-05 -0.0001902332194526594 8.626031465772654e-05 -0.00024218792243038982
 7.082045069045805e-05 -0.0001902332194526594 7.082045069045805e-05 -0.0001902332194526594 0.8921092704115168 -0.1599274590080002 0.9473678390965907 -0.08069655241075982
 7.111881622598088e-05 -0.00019184349520279319 8.626031465772654e-05 -0.00024218792243038982 0.9473678390965907 -0.08069655241075982 0.8921092704115168 -0.1599274590080002
199000000.0 0.9154045115680878 -0.1297099706700468 0.9577303724918282 -0.06505532030248146 6.484315384283839e-05 -0.0001919607236990259 8.117412236923453e-05 -0.00024225566433663215
 0.9577303724918282 -0.06505532030248146 0.9154045115680878 -0.1297099706700468 6.484315384283839e-05 -0.0001919607236990259 7.877676192182979e-05 -0.00024437344934399884
 6.484315384283839e-05 -0.0001919607236990259 6.484315384283839e-05 -0.0001919607236990259 0.8919373795767687 -0.16089703311132766 0.9473126681712201 -0.08117909219646048
 6.516813148795666e-05 -0.00019359615199552064 7.877676192182979e-05 -0.00024437344934399884 0.9473126681712201 -0.08117909219646048 0.8919373795767687 -0.16089703311132766
200000000.0 0.915299175779399 -0.13048896385239683 0.9576949662718693 -0.0654360723594157 5.8803403134571284e-05 -0.00019347044967001694 7.362835147734687e-05 -0.0002441780408506861
 0.9576949662718693 -0.0654360723594157 0.915299175779399 -0.13048896385239683 5.8803403134571284e-05 -0.00019347044967001694 7.121519834821859e-05 -0.0002462835939315076
 5.8803403134571284e-05 -0.00019347044967001694 5.8803403134571284e-05 -0.00019347044967001694 0.8917692003424743 -0.16186031959950611 0.9472595540141706 -0.08165851495088626
 5.915422856106934e-05 -0.00019513175035978662 7.121519834821859e-05 -0.0002462835939315076 0.9472595540141706 -0.08165851495088626 0.8917692003424743 -0.16186031959950611
201000000.0 0.9151970835144997 -0.13126315576729147 0.9576613817579138 -0.06581443775468804 5.271089054492216e-05 -0.00019475988527171167 6.601551764262631e-05 -0.00024582374434331403
 0.9576613817579138 -0.06581443775468804 0.9151970835144997 -0.13126315576729147 5.271089054492216e-05 -0.00019475988527171167 6.358790874410748e-05 -0.00024791524423861227
 5.271089054492216e-05 -0.00019475988527171167 5.271089054492216e-05 -0.00019475988527171167 0.89160507371702 -0.16281764548309452 0.9472086650395115 -0.08213498159106672
 5.3086742920591934e-05 -0.00019644774473490253 6.358790874410748e-05 -0.00024791524423861227 0.9472086650395115 -0.08213498159106672 0.89160507371702 -0.16281764548309452
202000000.0 0.9150984965899516 -0.13203281172909875 0.9576297467787586 -0.06619054990267288 4.657541816539094e-05 -0.00019582703651425067 5.834793742632017e-05 -0.00024719025540986383
 0.9576297467787586 -0.06619054990267288 0.9150984965899516 -0.13203281172909875 4.657541816539094e-05 -0.00019582703651425067 5.590731158718911e-05 -0.00024926594663767854
 4.657541816539094e-05 -0.00019582703651425067 4.657541816539094e-05 -0.00019582703651425067 0.8914453213464167 -0.1637693575079458 0.9471601602128246 -0.08260866271960567
 4.697542194886354e-05 -0.0001975421042517381 5.590731158718911e-05 -0.00024926594663767854 0.9471601602128246 -0.08260866271960567 0.8914453213464167 -0.1637693575079458
203000000.0 0.9150036611944421 -0.13279821208497544 0.9576001813615629 -0.06656454949487312 4.0406865087301164e-05 -0.00019667043176311728 5.063802255041077e-05 -0.00024827571158160305
 0.9576001813615629 -0.06656454949487312 0.9150036611944421 -0.13279821208497544 4.0406865087301164e-05 -0.00019667043176311728 4.8185916915334675e-05 -0.0002503339106593568
 4.0406865087301164e-05 -0.00019667043176311728 4.0406865087301164e-05 -0.00019667043176311728 0.8912902442641865 -0.16471582088138625 0.9471141884402509 -0.08307973800410262
 4.0830092039794264e-05 -0.00019841331710072438 4.8185916915334675e-05 -0.0002503339106593568 0.9471141884402509 -0.08307973800410262 0.8912902442641865 -0.16471582088138625
204000000.0 0.9149128069495791 -0.1335596511895033 0.9575727972800364 -0.06693658398875317 3.421515428172565e-05 -0.00019728912348643946 4.28982382312064e-05 -0.00024907890921627314
 0.9575727972800364 -0.06693658398875317 0.9149128069495791 -0.1335596511895033 3.421515428172565e-05 -0.00019728912348643946 4.0436284264665284e-05 -0.00025111801064233986
 3.421515428172565e-05 -0.00019728912348643946 3.421515428172565e-05 -0.00019728912348643946 0.8911401217426267 -0.16565741791453156 0.9470708880069657 -0.0835483955157039
 3.466062568584959e-05 -0.00019906039241077394 4.0436284264665284e-05 -0.00025111801064233986 0.9470708880069657 -0.0835483955157039 0.8911401217426267 -0.16565741791453156
205000000.0 0.9148261460518675 -0.1343174363178536 0.9575476976430387 -0.06730680706723309 2.8010219691073562e-05 -0.00019768268753137262 3.514106181888692e-05 -0.0002495993022820484
 0.9575476976430387 -0.06730680706723309 0.9148261460518675 -0.1343174363178536 2.8010219691073562e-05 -0.00019768268753137262 3.267098093401376e-05 -0.0002516177842497972
 2.8010219691073562e-05 -0.00019768268753137262 2.8010219691073562e-05 -0.00019768268753137262 0.890995210251283 -0.16659454659046788 0.9470303860679402 -0.08401483103153404
 2.8476908765710544e-05 -0.0001994828596711434 3.267098093401376e-05 -0.0002516177842497972 0.9470303860679402 -0.08401483103153404 0.890995210251283 -0.16659454659046788
206000000.0 0.9147438724999467 -0.13507188652520383 0.9575249765255107 -0.0676753780726756 2.1801973744669356e-05 -0.00019785121998422932 2.7378942009395938e-05 -0.0002498369981085751
 0.9575249765255107 -0.0676753780726756 0.9147438724999467 -0.13507188652520383 2.1801973744669356e-05 -0.00019785121998422932 2.490254084411449e-05 -0.0002518334279282769
 2.1801973744669356e-05 -0.00019785121998422932 2.1801973744669356e-05 -0.00019785121998422932 0.8908557425273789 -0.16752761906842562 0.9469927981932711 -0.08447924730595324
 2.2288808243935752e-05 -0.00019968076574977564 2.490254084411449e-05 -0.0002518334279282769 0.9469927981932711 -0.08447924730595324 0.8908557425273789 -0.16752761906842562
207000000.0 0.9146661614103305 -0.13582333146038603 0.9575047186432486 -0.06804246141931757 1.5600275501360836e-05 -0.00019779533168941645 1.96242588827639e-05 -0.0002497927502042526
 0.9575047186432486 -0.06804246141931757 0.9146661614103305 -0.13582333146038603 1.5600275501360836e-05 -0.00019779533168941645 1.7143424247301215e-05 -0.00025176578941050727
 1.5600275501360836e-05 -0.00019779533168941645 1.5600275501360836e-05 -0.00019779533168941645 0.8907219267618608 -0.16845706013434333 0.9469582279698733 -0.08494185331571345
 1.6106140484789988e-05 -0.0001996546695819743 1.7143424247301215e-05 -0.00025176578941050727 0.9469582279698733 -0.08494185331571345 0.8907219267618608 -0.16845706013434333
208000000.0 0.9145931684240295 -0.1365721101418986 0.9574869990725967 -0.06840822598816242 9.414899610752347e-06 -0.00019751614052115993 1.1889285006969997e-05 -0.0002494679482624551
 0.9574869990725967 -0.06840822598816242 0.9145931684240295 -0.1365721101418986 9.414899610752347e-06 -0.00019751614052115993 9.405978528256384e-06 -0.0002514163573871837
 9.414899610752347e-06 -0.00019751614052115993 9.414899610752347e-06 -0.00019751614052115993 0.8905939459036039 -0.16938330560836296 0.9469267666607615 -0.08540286348415985
 9.93864037110252e-06 -0.00019940563462212413 9.405978528256384e-06 -0.0002514163573871837 0.9469267666607615 -0.08540286348415985 0.8905939459036039 -0.16938330560836296
209000000.0 0.9145250292055931 -0.13731856970447018 0.9574718830157374 -0.0687728445083689 3.255506271368999e-06 -0.00019701526151921496 4.186147829200146e-06 -0.000248864605500725
 0.9574718830157374 -0.0687728445083689 0.9145250292055931 -0.13731856970447018 3.255506271368999e-06 -0.00019701526151921496 1.702400318833706e-06 -0.00025078724849424616
 3.255506271368999e-06 -0.00019701526151921496 3.255506271368999e-06 -0.00019701526151921496 0.8904719570832348 -0.17030680071980156 0.946898492922619 -0.08586249688962222
 3.7959314058686664e-06 -0.00019893521916834327 1.702400318833706e-06 -0.00025078724849424616 0.946898492922619 -0.08586249688962222 0.8904719570832348 -0.17030680071980156
210000000.0 0.9144618590352527 -0.1380630641243172 0.9574594256118107 -0.06913649292914133 -2.868387650889286e-06 -0.0001962947950150792 -3.4732064429203618e-06 -0.000247985343495848
 0.9574594256118107 -0.06913649292914133 0.9144618590352527 -0.1380630641243172 -2.868387650889286e-06 -0.0001962947950150792 -5.955300869571701e-06 -0.00024988119178108215
 -2.868387650889286e-06 -0.0001962947950150792 -2.868387650889286e-06 -0.0001962947950150792 0.890356091156964 -0.17122799846003972 0.9468734725818375 -0.08632097646308957
 -2.3125030404940183e-06 -0.00019824546468524883 -5.955300869571701e-06 -0.00024988119178108215 0.9468734725818375 -0.08632097646308957 0.890356091156964 -0.17122799846003972
211000000.0 0.9144037524940646 -0.13880595293110365 0.9574496717937424 -0.06949934978604887 -8.947436196912616e-06 -0.00019535731288850705 -1.1077047288415148e-05 -0.00024683337469397345
 0.9574496717937424 -0.06949934978604887 0.9144037524940646 -0.13880595293110365 -8.947436196912616e-06 -0.00019535731288850705 -1.3555337313777928e-05 -0.00024870151084136887
 -8.947436196912616e-06 -0.00019535731288850705 -8.947436196912616e-06 -0.00019535731288850705 0.8902464523697847 -0.1721473579235303 0.9468517584687016 -0.08677852818014556
 -8.377347190449346e-06 -0.00019733888226328497 -1.3555337313777928e-05 -0.00024870151084136887 0.9468517584687016 -0.08677852818014556 0.8902464523697847 -0.1721473579235303
212000000.0 0.9143507832411494 -0.1395475999143833 0.9574426561902422 -0.06986159556558776 -1.4972490451409479e-05 -0.0001942058431052434 -1.861389248880856e-05 -0.00024541248278844776
 0.9574426561902422 -0.06986159556558776 0.9143507832411494 -0.1395475999143833 -1.4972490451409479e-05 -0.0001942058431052434 -2.1086175886778257e-05 -0.0002472521038017613
 -1.4972490451409479e-05 -0.0001942058431052434 -1.4972490451409479e-05 -0.0001942058431052434 0.890143118136435 -0.17306534264679793 0.9468333903089262 -0.08723538025197689
 -1.4389478897615695e-05 -0.0001962184373641939 -2.1086175886778257e-05 -0.0002472521038017613 0.9468333903089262 -0.08723538025197689 0.890143118136435 -0.17306534264679793
213000000.0 0.9143030038814207 -0.14028837183200463 0.9574384030721083 -0.0702234120716374 -2.093462313114895e-05 -0.00019284385269580142 -2.6072538776224295e-05 -0.00024372700116871056
 0.9574384030721083 -0.0702234120716374 0.9143030038814207 -0.14028837183200463 -2.093462313114895e-05 -0.00019284385269580142 -2.8536568869292586e-05 -0.0002455374213742714
 -2.093462313114895e-05 -0.00019284385269580142 -2.093462313114895e-05 -0.00019284385269580142 0.8900461389376082 -0.1739824189548578 0.9468183946713035 -0.08769176232005241
 -2.0339994151389557e-05 -0.000194887533011136 -2.8536568869292586e-05 -0.0002455374213742714 0.9468183946713035 -0.08769176232005241 0.8900461389376082 -0.1739824189548578
214000000.0 0.9142604459215152 -0.14102863712758232 0.9574369263416325 -0.07058498179727472 -2.6825151531323176e-05 -0.00019127522934177024 -3.344209040074607e-05 -0.00024178178965144002
 0.9574369263416325 -0.07058498179727472 0.9142604459215152 -0.14102863712758232 -2.6825151531323176e-05 -0.00019127522934177024 -3.589558265206285e-05 -0.0002435624431859634
 -2.6825151531323176e-05 -0.00019127522934177024 -2.6825151531323176e-05 -0.00019127522934177024 0.8899555383280742 -0.17489905432396652 0.9468067849698271 -0.08814790465881499
 -2.6220229954727247e-05 -0.0001933499915886642 -3.589558265206285e-05 -0.0002435624431859634 0.9468067849698271 -0.08814790465881499 0.8899555383280742 -0.17489905432396652
215000000.0 0.9142231198110348 -0.1417687646636991 0.9574382295636161 -0.07094648730518853 -3.263565875570199e-05 -0.00018950426174056678 -4.0711985527773644e-05 -0.00023958220971016054
 0.9574382295636161 -0.07094648730518853 0.9142231198110348 -0.1417687646636991 -3.263565875570199e-05 -0.00018950426174056678 -4.3152624239997194e-05 -0.00024133265260451277
 -3.263565875570199e-05 -0.00018950426174056678 -3.263565875570199e-05 -0.00018950426174056678 0.8898713130526228 -0.17581571576900765 0.9467985615182773 -0.0886040373904335
 -3.2021785500538336e-05 -0.00019161003542223702 -4.3152624239997194e-05 -0.00024133265260451277 0.9467985615182773 -0.0886040373904335 0.8898713130526228 -0.17581571576900765
216000000.0 0.9141910150656647 -0.14250912247701522 0.9574423060362391 -0.07130811061968557 -3.8358013174902434e-05 -0.00018753561892180312 -4.787202039960634e-05 -0.0002371340984218184
 0.9574423060362391 -0.07130811061968557 0.9141910150656647 -0.14250912247701522 -3.8358013174902434e-05 -0.00018753561892180312 -5.0297465492976064e-05 -0.0002388540102803668
 -3.8358013174902434e-05 -0.00018753561892180312 -3.8358013174902434e-05 -0.00018753561892180312 0.8897934332650995 -0.17673286826316226 0.9467937116349585 -0.08906038971533818
 -3.773654159068303e-05 -0.0001896722663092732 -5.0297465492976064e-05 -0.0002388540102803668 0.9467937116349585 -0.08906038971533818 0.8897934332650995 -0.17673286826316226
217000000.0 0.9141641004682819 -0.14325007656092517 0.9574491388998085 -0.07167003263301765 -4.398438607542485e-05 -0.00018537432868860016 -5.491237121851135e-05 -0.0002344437413484987
 0.9574491388998085 -0.07167003263301765 0.9141641004682819 -0.14325007656092517 -4.398438607542485e-05 -0.00018537432868860016 -5.7320265061349185e-05 -0.00023613292662576915
 -4.398438607542485e-05 -0.00018537432868860016 -4.398438607542485e-05 -0.00018537432868860016 0.8897218428452378 -0.17765097319680181 0.9467922097949819 -0.0895171891619159
 -4.335667825979569e-05 -0.0001875416441739826 -5.7320265061349185e-05 -0.00023613292662576915 0.9467922097949819 -0.0895171891619159 0.8897218428452378 -0.17765097319680181
218000000.0 0.9141423243437532 -0.14399198968083918 0.9574587012812195 -0.07203243252847334 -4.950726747983813e-05 -0.00018302575535536118 -6.182361373073664e-05 -0.0002315178445696676
 0.9574587012812195 -0.07203243252847334 0.9141423243437532 -0.14399198968083918 -4.950726747983813e-05 -0.00018302575535536118 -6.421158799652664e-05 -0.00023317623344797574
 -4.950726747983813e-05 -0.00018302575535536118 -4.950726747983813e-05 -0.00018302575535536118 0.8896564598075358 -0.17857048688179167 0.946794017827289 -0.08997466085837656
 -4.8874690583797e-05 -0.00018522346501647215 -6.421158799652664e-05 -0.00023317623344797574 0.946794017827289 -0.08997466085837656 0.8896564598075358 -0.17857048688179167
219000000.0 0.9141256149028302 -0.14473522022657595 0.9574709564718201 -0.07239548722238472 -5.491948013544252e-05 -0.00018049557694987337 -6.859674051208711e-05 -0.00022836350607524888
 0.9574709564718201 -0.07239548722238472 0.9141256149028302 -0.14473522022657595 -5.491948013544252e-05 -0.00018049557694987337 -7.096242303837036e-05 -0.00022999115494875326
 -5.491948013544252e-05 -0.00018049557694987337 -5.491948013544252e-05 -0.00018049557694987337 0.8895971767960675 -0.17949185910662746 0.9467990851534118 -0.09043302682942475
 -5.4283402669828256e-05 -0.00018272333832306637 -7.096242303837036e-05 -0.00022999115494875326 0.9467990851534118 -0.09043302682942475 0.8895971767960675 -0.17949185910662746
220000000.0 0.9141138806502958 -0.145480121105754 0.9574858581362513 -0.07275937082690535 -6.021419168471677e-05 -0.00017778976204226696 -7.522317597556574e-05 -0.00022498818672270026
 0.9574858581362513 -0.07275937082690535 0.9141138806502958 -0.145480121105754 -6.021419168471677e-05 -0.00017778976204226696 -7.756419760110168e-05 -0.00022658527829492596
 -6.021419168471677e-05 -0.00017778976204226696 -6.021419168471677e-05 -0.00017778976204226696 0.8895438616588542 -0.1804155317470476 0.9468073490648566 -0.0908925053199885
 -5.9575979840252804e-05 -0.00018004716409954132 -7.756419760110168e-05 -0.00022658527829492596 0.9468073490648566 -0.0908925053199885 0.8895438616588542 -0.1804155317470476
221000000.0 0.9141070108523522 -0.1462270386814637 0.9575033505497623 -0.07312425413511177 -6.538492504568641e-05 -0.00017491454635654624 -8.169478913997728e-05 -0.00022139968095227363
 0.9575033505497623 -0.07312425413511177 0.9141070108523522 -0.1462270386814637 -6.538492504568641e-05 -0.00017491454635654624 -8.400879049793432e-05 -0.00022296652395558563
 -6.538492504568641e-05 -0.00017491454635654624 -6.538492504568641e-05 -0.00017491454635654624 0.8894963580952546 -0.1813419374359862 0.9468187350359071 -0.09135331014787994
 -6.474593903815014e-05 -0.00017720110968224526 -8.400879049793432e-05 -0.00022296652395558563 0.9468187350359071 -0.09135331014787994 0.8894963580952546 -0.1813419374359862
222000000.0 0.9141048760581594 -0.1469763117569068 0.9575233688614685 -0.0734903041296878 -7.042556704394335e-05 -0.0001718764093122634 -8.800390421519074e-05 -0.00021760608744405245
 0.9575233688614685 -0.0734903041296878 0.9141048760581594 -0.1469763117569068 -7.042556704394335e-05 -0.0001718764093122634 -9.028854246151771e-05 -0.0002191431159907941
 -7.042556704394335e-05 -0.0001718764093122634 -7.042556704394335e-05 -0.0001718764093122634 0.8894544863697553 -0.1822714982959639 0.9468331570686102 -0.09181565008688432
 -6.978715749528092e-05 -0.00017419158647404177 -9.028854246151771e-05 -0.0002191431159907941 0.9468331570686102 -0.09181565008688432 0.8894544863697553 -0.1822714982959639
223000000.0 0.9141073286703952 -0.1477282706091023 0.9575458393810025 -0.07385768351616581 -7.533037535026323e-05 -0.0001686820506346652 -9.414330907479535e-05 -0.000213615779888435
 0.9575458393810025 -0.07385768351616581 0.9141073286703952 -0.1477282706091023 -7.533037535026323e-05 -0.0001686820506346652 -9.639626453236642e-05 -0.00021512355246450658
 -7.533037535026323e-05 -0.0001686820506346652 -7.533037535026323e-05 -0.0001686820506346652 0.8894180440855568 -0.18320462473627916 0.9468505180667114 -0.09227972828141087
 -7.46938797156919e-05 -0.0001710252267428649 -9.639626453236642e-05 -0.00021512355246450658 0.9468505180667114 -0.09227972828141087 0.8894180440855568 -0.18320462473627916
224000000.0 0.9141142035597585 -0.14848323607319808 0.9575706798860406 -0.07422655028141409 -8.009398378858257e-05 -0.00016533836716147026 -0.00010010626170013526 -0.00020943737802868643
 0.9575706798860406 -0.07422655028141409 0.9141142035597585 -0.14848323607319808 -8.009398378858257e-05 -0.00016533836716147026 -0.00010232524440073304 -0.0002109165761412054
 -8.009398378858257e-05 -0.00016533836716147026 -8.009398378858257e-05 -0.00016533836716147026 0.889386807011436 -0.18414171431664447 0.9468707102353517 -0.09274574169349849
 -7.946072283892911e-05 -0.00016770886061060497 -0.00010232524440073304 -0.0002109165761412054 0.9468707102353517 -0.09274574169349849 0.889386807011436 -0.18414171431664447
225000000.0 0.9141253187184332 -0.14924151867839422 0.9575977999482447 -0.07459705727780871 -8.471140608842382e-05 -0.00016185242996356468 -0.00010588649469107093 -0.00020507971912031017
 0.9575977999482447 -0.07459705727780871 0.9141253187184332 -0.14924151867839422 -8.471140608842382e-05 -0.00016185242996356468 -0.00010806925079875324 -0.00020653114561169163
 -8.471140608842382e-05 -0.00016185242996356468 -8.471140608842382e-05 -0.00016185242996356468 0.8893605299555326 -0.18508315067824702 0.9468936155034197 -0.09321388058262947
 -8.408268045615134e-05 -0.0001642494933492669 -0.00010806925079875324 -0.00020653114561169163 0.9468936155034197 -0.09321388058262947 0.8893605299555326 -0.18508315067824702
226000000.0 0.9141404759476867 -0.150003417835976 0.9576271012752283 -0.07496935183327086 -8.917803816372162e-05 -0.0001582314618854886 -0.00011147821794833644 -0.00020055182993748854
 0.9576271012752283 -0.07496935183327086 0.9141404759476867 -0.150003417835976 -8.917803816372162e-05 -0.0001582314618854886 -0.00011362253604920178 -0.0002019764069787996
 -8.917803816372162e-05 -0.0001582314618854886 -8.917803816372162e-05 -0.0001582314618854886 0.8893389476799376 -0.18602930254259065 0.9469191059655689 -0.09368432801851027
 -8.855512496030905e-05 -0.00016065428309002363 -0.00011362253604920178 -0.0002019764069787996 0.9469191059655689 -0.09368432801851027 0.8893389476799376 -0.18602930254259065
227000000.0 0.9141594615749732 -0.1507692210795033 0.9576584780662835 -0.07534357538713321 -9.348965900638131e-05 -0.00015448281559984778 -0.00011687611964000424 -0.00019586289944197434
 0.9576584780662835 -0.07534357538713321 0.9141594615749732 -0.1507692210795033 -9.348965900638131e-05 -0.00015448281559984778 -0.0001189798368848107 -0.0001972616662187733
 -9.348965900638131e-05 -0.00015448281559984778 -9.348965900638131e-05 -0.00015448281559984778 0.8893217758502412 -0.18698052277790256 0.94694704434104 -0.0941572594266922
 -9.287380851794571e-05 -0.0001569305190391337 -0.0001189798368848107 -0.0001972616662187733 0.94694704434104 -0.0941572594266922 0.8893217758502412 -0.18698052277790256
228000000.0 0.9141820471961631 -0.1515392033567702 0.9576918173796891 -0.07571986315159071 -9.764243028783489e-05 -0.0001506139522578707 -0.00012207536557040609 -0.00019102225221478625
 0.9576918173796891 -0.07571986315159071 0.9141820471961631 -0.1515392033567702 -9.764243028783489e-05 -0.0001506139522578707 -0.0001241363736578937 -0.0001923963623188565
 -9.764243028783489e-05 -0.0001506139522578707 -9.764243028783489e-05 -0.0001506139522578707 0.8893087120145459 -0.18793714753237273 0.9469772844466035 -0.09463284216665531
 -9.703486275514325e-05 -0.00015308560028286358 -0.0001241363736578937 -0.0001923963623188565 0.9469772844466035 -0.09463284216665531 0.8893087120145459 -0.18793714753237273
229000000.0 0.9142079904387858 -0.15231362637278426 0.9577269995096106 -0.07609834379830593 -0.00010163289476540668 -0.00014663242080641456 -0.0001270715970739622 -0.00018603932273606166
 0.9577269995096106 -0.07609834379830593 0.9142079904387858 -0.15231362637278426 -0.00010163289476540668 -0.00014663242080641456 -0.00012908784806406 -0.00018739004127650696
 -0.00010163289476540668 -0.00014663242080641456 -0.00010163289476540668 -0.00014663242080641456 0.889299436606816 -0.188899495433046 0.9470096716811245 -0.09511123514175635
 -0.00010103479725371005 -0.00014912701525171288 -0.00012908784806406 -0.00018739004127650696 0.9470096716811245 -0.09511123514175635 0.889299436606816 -0.188899495433046
230000000.0 0.9142370357424957 -0.15309273798267695 0.9577638983707171 -0.07647913916958393 -0.00010545797359249474 -0.00014254583802996093 -0.00013186092755878187 -0.00018092363058365947
 0.9577638983707171 -0.07647913916958393 0.9142370357424957 -0.15309273798267695 -0.00010545797359249474 -0.00014254583802996093 -0.0001338304395061402 -0.00018225233103075675
 -0.00010545797359249474 -0.00014254583802996093 -0.00010545797359249474 -0.00014254583802996093 0.8892936139698518 -0.18986786684878432 0.9470440435194407 -0.09559258844024686
 -0.00010487049695594858 -0.00014506232190254802 -0.0001338304395061402 -0.00018225233103075675 0.9470440435194407 -0.09559258844024686 0.8892936139698518 -0.18986786684878432
231000000.0 0.9142689151532822 -0.15387677163318486 0.9578023818888213 -0.07686236401339482 -0.00010911496263253128 -0.00013836186936463747 -0.00013643993782578307 -0.000175684756606708
 0.9578023818888213 -0.07686236401339482 0.9142689151532822 -0.15387677163318486 -0.00010911496263253128 -0.00013836186936463747 -0.00013836080022524224 -0.0001769929173817245
 -0.00010911496263253128 -0.00013836186936463747 -0.00010911496263253128 -0.00013836186936463747 0.8892908933936106 -0.19084254321539743 0.9470802300134731 -0.09607704300640717
 -0.0001085392185773408 -0.00014089912866580796 -0.00013836080022524224 -0.0001769929173817245 0.9470802300134731 -0.09607704300640717 0.8892908933936106 -0.19084254321539743
232000000.0 0.914303349128302 -0.15466594585110385 0.9578423123960244 -0.07724812574141045 -0.0001126015278764512 -0.00013408821052021504 -0.00014080567028847645 -0.00017033232011644714
 0.9578423123960244 -0.07724812574141045 0.914303349128302 -0.15466594585110385 -0.0001126015278764512 -0.00013408821052021504 -0.00014267604932516228 -0.00017162152094033875
 -0.0001126015278764512 -0.00013408821052021504 -0.0001126015278764512 -0.00013408821052021504 0.8892909101650429 -0.19182378642076064 0.9471180542986956 -0.09656473034071114
 -0.00011203858612631055 -0.00013664507619391242 -0.00014267604932516228 -0.00017162152094033875 0.9471180542986956 -0.09656473034071114 0.8892909101650429 -0.19182378642076064
233000000.0 0.9143400473485671 -0.15546046377693823 0.9578835470290172 -0.07763652420913114 -0.00011591570006210692 -0.00012973256993541486 -0.00014495562221666168 -0.00016487595712349283
 0.9578835470290172 -0.07763652420913114 0.9143400473485671 -0.15546046377693823 -0.00011591570006210692 -0.00012973256993541486 -0.00014677376581437236 -0.0001661478751370245
 -0.00011591570006210692 -0.00012973256993541486 -0.00011591570006210692 -0.00012973256993541486 0.8892932866260838 -0.19281183824754966 0.9471573331043365 -0.09705577222783542
 -0.00011536658562898447 -0.00013230781993643485 -0.00014677376581437236 -0.0001661478751370245 0.9471573331043365 -0.09705577222783542 0.8892932866260838 -0.19281183824754966
234000000.0 0.9143787095370711 -0.15626051274183372 0.9579259381293738 -0.07802765151712553 -0.00011905586859178594 -0.00012530265208184128 -0.00014888773812416444 -0.00015932529963820396
 0.9579259381293738 -0.07802765151712553 0.9143787095370711 -0.15626051274183372 -0.00011905586859178594 -0.00012530265208184128 -0.00015065198078657911 -0.00016058170530558404
 -0.00011905586859178594 -0.00012530265208184128 -0.00011905586859178594 -0.00012530265208184128 0.8892976332368899 -0.19380691987106358 0.9471978772658834 -0.09755028049125497
 -0.00011852155915465338 -0.00012789501355762239 -0.00015065198078657911 -0.00016058170530558404 0.9471978772658834 -0.09755028049125497 0.8892976332368899 -0.19380691987106358
235000000.0 0.9144190262803022 -0.1570662638857897 0.9579693336448426 -0.07842159183234655 -0.0001220207748408417 -0.00012080614162248237 -0.00015260040141655697 -0.00015368995603920747
 0.9579693336448426 -0.07842159183234655 0.9144190262803022 -0.1570662638857897 -0.0001220207748408417 -0.00012080614162248237 -0.00015430916885655354 -0.00015493270884682416
 -0.0001220207748408417 -0.00012080614162248237 -0.0001220207748408417 -0.00012080614162248237 0.8893035496418806 -0.19480923140953102 0.9472394922387215 -0.09804835677312736
 -0.00012150219823454804 -0.00012341429320249955 -0.00015430916885655354 -0.00015493270884682416 0.9472394922387215 -0.09804835677312736 0.8893035496418806 -0.19480923140953102
236000000.0 0.9144606798514576 -0.1578778718151071 0.9580135775308352 -0.07881842122849272 -0.00012480950494653877 -0.00011625068842204106 -0.0001560924254096985 -0.00014797949250441056
 0.9580135775308352 -0.07881842122849272 0.9144606798514576 -0.1578778718151071 -0.00012480950494653877 -0.00011625068842204106 -0.00015774423896270726 -0.00014921053646571212
 -0.00012480950494653877 -0.00011625068842204106 -0.00012480950494653877 -0.00011625068842204106 0.889310625736583 -0.1958189515242677 0.9472819786119304 -0.09855009233814996
 -0.00012430753676269895 -0.00011887326260913909 -0.00015774423896270726 -0.00014921053646571212 0.9472819786119304 -0.09855009233814996 0.889310625736583 -0.1958189515242677
237000000.0 0.9145033450339831 -0.15869547429702505 0.9580585101514534 -0.07921820754435674 -0.00012742148216162664 -0.00011164389339844351 -0.0001593630438239931 -0.00014220341548906346
 0.9580585101514534 -0.07921820754435674 0.9145033450339831 -0.15869547429702505 -0.00012742148216162664 -0.00011164389339844351 -0.0001609565246418412 -0.00014342477446605158
 -0.00012742148216162664 -0.00011164389339844351 -0.00012742148216162664 -0.00011164389339844351 0.8893184427337231 -0.19683623706706907 0.9473251326214894 -0.09905556790009033
 -0.0001269369434631246 -0.0001142794790567774 -0.0001609565246418412 -0.00014342477446605158 0.9473251326214894 -0.09905556790009033 0.8893184427337231 -0.19683623706706907
238000000.0 0.914546689944437 -0.1595191919895368 0.9581039686795932 -0.07962101025915287 -0.00012985645885202896 -0.00010699329519770756 -0.00016241190085266842 -0.00013637115522662765
 0.9581039686795932 -0.07962101025915287 0.914546689944437 -0.1595191919895368 -0.00012985645885202896 -0.00010699329519770756 -0.00016394577387478232 -0.00013758492807784697
 -0.00012985645885202896 -0.00010699329519770756 -0.00012985645885202896 -0.00010699329519770756 0.8893265742274041 -0.19786122277230436 0.9473687466623444 -0.0995648534697176
 -0.00012939011400252674 -0.0001096404401322974 -0.00016394577387478232 -0.00013758492807784697 0.9473687466623444 -0.0995648534697176 0.8893265742274041 -0.19786122277230436
239000000.0 0.914590376853947 -0.16034912820445274 0.9581497874957866 -0.08002688038383014 -0.00013211450821242406 -0.0001023063576679978 -0.0001652390408952147 -0.0001304920502204139
 0.9581497874957866 -0.08002688038383014 0.914590376853947 -0.16034912820445274 -0.00013211450821242406 -0.0001023063576679978 -0.00016671213859435101 -0.00013170040578473822
 -0.00013211450821242406 -0.0001023063576679978 -0.00013211450821242406 -0.0001023063576679978 0.8893345872546087 -0.1988940209912962 0.9474126097989745 -0.10007800822293493
 -0.0001316670628221228 -0.00010496357129124392 -0.00016671213859435101 -0.00013170040578473822 0.9474126097989745 -0.10007800822293493 0.8893345872546087 -0.1988940209912962
240000000.0 0.9146340630078521 -0.1611853687018856 0.9581957985856084 -0.08043586036745055 -0.00013419601576753008 -9.759045810311542e-05 -0.00016784489803952347 -0.00012457533268714547
 0.9581957985856084 -0.08043586036745055 0.9146340630078521 -0.1611853687018856 -0.00013419601576753008 -9.759045810311542e-05 -0.00016925616393939362 -0.00012578050461209067
 -0.00013419601576753008 -9.759045810311542e-05 -0.00013419601576753008 -9.759045810311542e-05 0.8893420433536199 -0.19993472146672706 0.9474565082742827 -0.10059508038797232
 -0.00013376811475634016 -0.0001002562141839502 -0.00016925616393939362 -0.00012578050461209067 0.9474565082742827 -0.10059508038797232 0.8893420433536199 -0.19993472146672706
241000000.0 0.9146774014433656 -0.16202798151448064 0.958241831935594 -0.0808479840177742 -0.0001361016707206534 -9.285287622089873e-05 -0.00017023028536834105 -0.00011863011490780007
 0.958241831935594 -0.0808479840177742 0.9146774014433656 -0.16202798151448064 -0.0001361016707206534 -9.285287622089873e-05 -0.00017157877733058676 -0.00011983439633055071
 -0.0001361016707206534 -9.285287622089873e-05 -0.0001361016707206534 -9.285287622089873e-05 0.8893484996192698 -0.20098339114502098 0.9475002260167839 -0.10111610715061717
 -0.00013569389649990214 -9.552561571256775e-05 -0.00017157877733058676 -0.00011983439633055071 0.9475002260167839 -0.10111610715061717 0.8893484996192698 -0.20098339114502098
242000000.0 0.9147200418053577 -0.1628770167998693 0.9582877159277449 -0.08126327643528033 -0.0001378324572046151 -8.810078383801248e-05 -0.00017239638415748784 -0.0001126653764362557
 0.9582877159277449 -0.08126327643528033 0.9147200418053577 -0.1628770167998693 -0.0001378324572046151 -8.810078383801248e-05 -0.00017368127743546305 -0.00011387111452508882
 -0.0001378324572046151 -8.810078383801248e-05 -0.0001378324572046151 -8.810078383801248e-05 0.8893535097552326 -0.20204007402487423 0.9475435451462225 -0.10164111457655305
 -0.0001374453279784402 -9.077891778077308e-05 -0.00017368127743546305 -0.00011387111452508882 0.9475435451462225 -0.10164111457655305 0.8893535097552326 -0.20204007402487423
243000000.0 0.9147616311605514 -0.1637325067200353 0.9583332777327899 -0.0816817539599478 -0.00013938964548360208 -8.334123519936499e-05 -0.00017434473302501847 -0.0001066899521123873
 0.9583332777327899 -0.0816817539599478 0.9147616311605514 -0.1637325067200353 -0.00013938964548360208 -8.334123519936499e-05 -0.00017556532308173663 -0.00010789954247571953
 -0.00013938964548360208 -8.334123519936499e-05 -0.00013938964548360208 -8.334123519936499e-05 0.8893566251238118 -0.20310479104037554 0.9475862464778623 -0.10217011755002582
 -0.0001390236136712549 -8.60231476946587e-05 -0.00017556532308173663 -0.00010789954247571953 0.9475862464778623 -0.10217011755002582 0.8893566251238118 -0.20310479104037554
244000000.0 0.9148018148106241 -0.16459446534647884 0.9583783437024773 -0.08210342413023061 -0.000140774783147872 -7.858115791790912e-05 -0.00017607721708215243 -0.00010071252082332283
 0.9583783437024773 -0.08210342413023061 0.9148018148106241 -0.16459446534647884 -0.000140774783147872 -7.858115791790912e-05 -0.00017723292216958553 -0.00010192840179321247
 -0.000140774783147872 -7.858115791790912e-05 -0.000140774783147872 -7.858115791790912e-05 0.8893573957938975 -0.2041775399774402 0.9476281100258145 -0.10270311972817665
 -0.00014043023392827102 -8.126520917080203e-05 -0.00017723292216958553 -0.00010192840179321247 0.9476281100258145 -0.10270311972817665 0.8893573957938975 -0.2041775399774402
245000000.0 0.9148402371048444 -0.1654628885903128 0.9584227397612297 -0.08252828565377218 -0.0001419896863366424 -7.382734447879408e-05 -0.00017759605712851638 -9.474159495449684e-05
 0.9584227397612297 -0.08252828565377218 0.9148402371048444 -0.1654628885903128 -0.0001419896863366424 -7.382734447879408e-05 -0.00017868642062518226 -9.5966241751103e-05
 -0.0001419896863366424 -7.382734447879408e-05 -0.0001419896863366424 -7.382734447879408e-05 0.889355371587938 -0.20525829542259177 0.9476689155058408 -0.1032401135105463
 -0.00014166693631667774 -7.651187390567793e-05 -0.00017868642062518226 -9.5966241751103e-05 0.9476689155058408 -0.1032401135105463 0.889355371587938 -0.20525829542259177
246000000.0 0.9148765422530135 -0.16633775415666083 0.9584662917975745 -0.08295632838952874 -0.00014303643101796134 -6.908644426075244e-05 -0.0001789037989260365 -8.878551047094818e-05
 0.9584662917975745 -0.08295632838952874 0.9148765422530135 -0.16633775415666083 -0.00014303643101796134 -6.908644426075244e-05 -0.00017992849142949786 -9.00214292541963e-05
 -0.00014303643101796134 -6.908644426075244e-05 -0.00014303643101796134 -6.908644426075244e-05 0.8893501031288892 -0.20634700874344283 0.9477084428381414 -0.10378108002340684
 -0.00014273572702624862 -7.176977365945786e-05 -0.00017992849142949786 -9.00214292541963e-05 0.9477084428381414 -0.10378108002340684 0.8893501031288892 -0.20634700874344283
247000000.0 0.9149103751395476 -0.1672190215229908 0.9585088260557865 -0.08338753334109968 -0.00014391734434795718 -6.436495602715208e-05 -0.00018000330257780312 -8.285241756890156e-05
 0.9585088260557865 -0.08338753334109968 0.9149103751395476 -0.1672190215229908 -0.00014391734434795718 -6.436495602715208e-05 -0.00018096212374833692 -8.410213938343687e-05
 -0.00014391734434795718 -6.436495602715208e-05 -0.00014391734434795718 -6.436495602715208e-05 0.8893411428882079 -0.20744360810056933 0.9477464726506954 -0.10432598911874545
 -0.00014363886235596615 -6.704539280673903e-05 -0.00018096212374833692 -8.410213938343687e-05 0.9477464726506954 -0.10432598911874545 0.8893411428882079 -0.20744360810056933
248000000.0 0.9149413821395996 -0.1681066319412825 0.9585501695282114 -0.08382187266119698 -0.0001446349961256322 -5.9669220839326576e-05 -0.00018089773203042392 -7.695027183805216e-05
 0.9585501695282114 -0.08382187266119698 0.9149413821395996 -0.1681066319412825 -0.0001446349961256322 -5.9669220839326576e-05 -0.0001817906121817073 -7.821634645748165e-05
 -0.0001446349961256322 -5.9669220839326576e-05 -0.0001446349961256322 -5.9669220839326576e-05 0.8893280462359779 -0.2085479984908046 0.9477827867837125 -0.1048747993878842
 -0.00014437884029836875 -6.23450613068793e-05 -0.0001817906121817073 -7.821634645748165e-05 0.9477827867837125 -0.1048747993878842 0.8893280462359779 -0.2085479984908046
249000000.0 0.914969211938142 -0.16900050846419892 0.9585901503487657 -0.08425930966730742 -0.00014519219035334996 -5.5005415345553306e-05 -0.00018159054471087265 -7.108682587607229e-05
 0.9585901503487657 -0.08425930966730742 0.914969211938142 -0.16900050846419892 -0.00014519219035334996 -5.5005415345553306e-05 -0.0001824175461430899 -7.237181555251115e-05
 -0.00014519219035334996 -5.5005415345553306e-05 -0.00014519219035334996 -5.5005415345553306e-05 0.8893103724942683 -0.20966006182233354 0.9478171687957956 -0.10542745818990541
 -0.00014495839223204566 -5.7674948047320766e-05 -0.0001824175461430899 -7.237181555251115e-05 0.9478171687957956 -0.10542745818990541 0.8893103724942683 -0.20966006182233354
250000000.0 0.9149935163529032 -0.169900555995703 0.9586285981880667 -0.08469979886875795 -0.00014559195690740104 -5.0379545400346935e-05 -0.00018208548130163805 -6.526962129862542e-05
 0.9586285981880667 -0.08469979886875795 0.9149935163529032 -0.169900555995703 -0.00014559195690740104 -5.0379545400346935e-05 -0.00018284679937194935 -6.657609442367784e-05
 -0.00014559195690740104 -5.0379545400346935e-05 -0.00014559195690740104 -5.0379545400346935e-05 0.8892876859947653 -0.2107796570223033 0.9478494044723623 -0.10598390169520341
 -0.0001453804747269499 -5.304105451452595e-05 -0.00018284679937194935 -6.657609442367784e-05 0.9478494044723623 -0.10598390169520341 0.8892876859947653 -0.2107796570223033
251000000.0 0.9150139511620078 -0.17080666136683315 0.9586653446506554 -0.08514328600550351 -0.0001458375433175548 -4.5797439970562236e-05 -0.00018238655565115834 -5.9505981090600044e-05
 0.9586653446506554 -0.08514328600550351 0.9150139511620078 -0.17080666136683315 -0.0001458375433175548 -4.5797439970562236e-05 -0.0001830825195759959 -6.0836505774119395e-05
 -0.0001458375433175548 -4.5797439970562236e-05 -0.0001458375433175548 -4.5797439970562236e-05 0.8892595571416357 -0.21190662017801373 0.9478792823368555 -0.10654405494467302
 -0.00014564826146173514 -4.844920874892267e-05 -0.0001830825195759959 -6.0836505774119395e-05 0.9478792823368555 -0.10654405494467302 0.8892595571416357 -0.21190662017801373
252000000.0 0.9150301769370867 -0.17171869343761453 0.9587002236747207 -0.08558970809910621 -0.0001459324066493441 -4.126474528708266e-05 -0.00018249804481009656 -5.380300224726552e-05
 0.9587002236747207 -0.08558970809910621 0.9150301769370867 -0.17171869343761453 -0.0001459324066493441 -4.126474528708266e-05 -0.00018312911819328546 -5.51601398205593e-05
 -0.0001459324066493441 -4.126474528708266e-05 -0.0001459324066493441 -4.126474528708266e-05 0.8892255634804358 -0.21304076471307 0.9479065941651885 -0.10710783192518412
 -0.00014576513524715723 -4.39050595424763e-05 -0.00018312911819328546 -5.51601398205593e-05 0.9479065941651885 -0.10710783192518412 0.8892255634804358 -0.21304076471307
253000000.0 0.9150418598824951 -0.1726365032263408 0.9587330719346667 -0.08603899351649427 -0.00014588020547800913 -3.678691920361495e-05 -0.00018242447917803128 -4.816754865761897e-05
 0.9587330719346667 -0.08603899351649427 0.9150418598824951 -0.1726365032263408 -0.00014588020547800913 -3.678691920361495e-05 -0.00018299126025827443 -4.955384710818835e-05
 -0.00014588020547800913 -3.678691920361495e-05 -0.00014588020547800913 -3.678691920361495e-05 0.8891852907737056 -0.21418188160020485 0.9479311355038101 -0.10767513566217234
 -0.0001457346801447612 -3.94140708401956e-05 -0.00018299126025827443 -4.955384710818835e-05 0.9479311355038101 -0.10767513566217234 0.8891852907737056 -0.21418188160020485
254000000.0 0.9150486726811285 -0.1735599240677108 0.9587637292468093 -0.08649106204720758 -0.00014568479193857967 -3.236922572724376e-05 -0.00018217063273961504 -4.2606244186238475e-05
 0.9587637292468093 -0.08649106204720758 0.9150486726811285 -0.1735599240677108 -0.00014568479193857967 -3.236922572724376e-05 -0.00018267385435045624 -4.402423153167222e-05
 -0.00014568479193857967 -3.236922572724376e-05 -0.00014568479193857967 -3.236922572724376e-05 0.8891383340836634 -0.21532973961276694 0.947952706191649 -0.10824585833030696
 -0.00014556067366560958 -3.498151630995058e-05 -0.00018267385435045624 -4.402423153167222e-05 0.947952706191649 -0.10824585833030696 0.8891383340836634 -0.21532973961276694
255000000.0 0.9150502953471427 -0.17448877180152358 0.9587920389783876 -0.08694582499495918 -0.00014535020383251552 -2.8016729688919917e-05 -0.00018174151336423696 -3.712546591448832e-05
 0.9587920389783876 -0.08694582499495918 0.9150502953471427 -0.17448877180152358 -0.00014535020383251552 -2.8016729688919917e-05 -0.00018218204259922747 -3.857764352376435e-05
 -0.00014535020383251552 -2.8016729688919917e-05 -0.00014535020383251552 -2.8016729688919917e-05 0.889084298862159 -0.21648408561715332 0.9479711108860874 -0.10881988138334932
 -0.0001452470790297345 -3.061247404844434e-05 -0.00018218204259922747 -3.857764352376435e-05 0.9479711108860874 -0.10881988138334932 0.889084298862159 -0.21648408561715332
256000000.0 0.9150464160856583 -0.17542284499386407 0.9588178484599668 -0.08740318528443985 -0.0001448806567676787 -2.373429152591174e-05 -0.00018114235313872458 -3.17313375068635e-05
 0.9588178484599668 -0.08740318528443985 0.9150464160856583 -0.17542284499386407 -0.0001448806567676787 -2.373429152591174e-05 -0.00018152119071418617 -3.322017337804677e-05
 -0.0001448806567676787 -2.373429152591174e-05 -0.0001448806567676787 -2.373429152591174e-05 0.8890228020477315 -0.2176446449087075 0.94798615959296 -0.10939707570442926
 -0.00014479803746331998 -2.6311821394976425e-05 -0.00018152119071418617 -3.322017337804677e-05 0.94798615959296 -0.10939707570442926 0.8890228020477315 -0.2176446449087075
257000000.0 0.9150367321592895 -0.17636192519288554 0.9588410094012007 -0.08786303758439054 -0.00014428053630520052 -1.952656215240313e-05 -0.00018037859869867682 -2.6429722673578322e-05
 0.9588410094012007 -0.08786303758439054 0.9150367321592895 -0.17636192519288554 -0.00014428053630520052 -1.952656215240313e-05 -0.00018069687800618758 -2.7957644677735532e-05
 -0.00014428053630520052 -1.952656215240313e-05 -0.00014428053630520052 -1.952656215240313e-05 0.8889534731692909 -0.218811121593827 0.9479976682004194 -0.10997730177808941
 -0.0001442178605073795 -2.2084229828735383e-05 -0.00018069687800618758 -2.7957644677735532e-05 0.9479976682004194 -0.10997730177808941 0.8889534731692909 -0.218811121593827
258000000.0 0.9150209507610533 -0.17730577722147467 0.9588613783097798 -0.08832526844805408 -0.00014355439008404474 -1.539797789886382e-05 -0.00017945590152064416 -2.122621870617233e-05
 0.9588613783097798 -0.08832526844805408 0.9150209507610533 -0.17730577722147467 -0.00014355439008404474 -1.539797789886382e-05 -0.0001797148873611856 -2.27956078082496e-05
 -0.00014355439008404474 -1.539797789886382e-05 -0.00014355439008404474 -1.539797789886382e-05 0.8888759554555599 -0.219983199021203 0.9480054590163234 -0.11056040988553704
 -0.00014351102230889112 -1.793415992974466e-05 -0.0001797148873611856 -2.27956078082496e-05 0.9480054590163234 -0.11056040988553704 0.8888759554555599 -0.219983199021203
259000000.0 0.9149987898929137 -0.17825414950921473 0.9588788169132407 -0.08878975647217896 -0.0001427069198917758 -1.1352755505477253e-05 -0.00017838010813459498 -1.6126150068847087e-05
 0.9588788169132407 -0.08878975647217896 0.9149987898929137 -0.17825414950921473 -0.0001427069198917758 -1.1352755505477253e-05 -0.00017858119512620312 -1.7739333537267823e-05
 -0.0001427069198917758 -1.1352755505477253e-05 -0.0001427069198917758 -1.1352755505477253e-05 0.8887899069490096 -0.22116054026526472 0.9480093613086061 -0.1111462403246209
 -0.00014268215186301363 -1.3865856388195513e-05 -0.00017858119512620312 -1.7739333537267823e-05 0.9480093613086061 -0.1111462403246209 0.8887899069490096 -0.22116054026526472
260000000.0 0.9149699792488845 -0.1792067744661693 0.9588931925831613 -0.08925637247581197 -0.00014174297364824177 -7.394887159794511e-06 -0.00017715725021395036 -1.11345620344619e-05
 0.9588931925831613 -0.08925637247581197 0.9149699792488845 -0.1792067744661693 -0.00014174297364824177 -7.394887159794511e-06 -0.00017730196086472426 -1.2793806652293184e-05
 -0.00014174297364824177 -7.394887159794511e-06 -0.00014174297364824177 -7.394887159794511e-06 0.8886950016225854 -0.22234278866499751 0.9480092118478854 -0.11173462365610586
 -0.00014173602517315357 -9.883343051736347e-06 -0.00017730196086472426 -1.2793806652293184e-05 0.9480092118478854 -0.11173462365610586 0.8886950016225854 -0.22234278866499751
261000000.0 0.9149342611012625 -0.1801633689010885 0.958904378761091 -0.08972497970014486 -0.00014066753726758014 -3.528135573810199e-06 -0.0001757935344989511 -6.256214360503951e-06
 0.958904378761091 -0.08972497970014486 0.9149342611012625 -0.1801633689010885 -0.00014066753726758014 -3.528135573810199e-06 -0.0001758835169373946 -7.963719652198295e-06
 -0.00014066753726758014 -3.528135573810199e-06 -0.00014066753726758014 -3.528135573810199e-06 0.8885909304970576 -0.2235295684213598 0.9480048554513304 -0.11232538097785953
 -0.0001406775572942895 -5.990418005271744e-06 -0.0001758835169373946 -7.963719652198295e-06 0.9480048554513304 -0.11232538097785953 0.8885909304970576 -0.2235295684213598
262000000.0 0.9148913911881871 -0.18112363448666083 0.95891225538538 -0.0901954340307067 -0.00013948572636317489 2.43970899167844e-07 -0.0001742953325082625 -1.4955750069205248e-06
 0.95891225538538 -0.0901954340307067 0.9148913911881871 -0.18112363448666083 -0.00013948572636317489 2.43970899167844e-07 -0.00017433235786319106 -3.2534664958591624e-06
 -0.00013948572636317489 2.43970899167844e-07 -0.00013948572636317489 2.43970899167844e-07 0.8884774027563479 -0.22472048525652732 0.9479961455265826 -0.11291832422856103
 -0.0001395117942241171 -2.1906486829633327e-06 -0.00017433235786319106 -3.2534664958591624e-06 0.9479961455265826 -0.11291832422856103 0.8884774027563479 -0.22472048525652732
263000000.0 0.9148411396003406 -0.18208725827443964 0.9589167093178906 -0.09066758424319077 -0.0001382027777599519 3.918143102239319e-06 -0.0001726691699935444 3.1431860956556034e-06
 0.9589167093178906 -0.09066758424319077 0.9148411396003406 -0.18208725827443964 -0.0001382027777599519 3.918143102239319e-06 -0.00017265512941618043 1.3328635823243033e-06
 -0.0001382027777599519 3.918143102239319e-06 -0.0001382027777599519 3.918143102239319e-06 0.8883541468576861 -0.22591512713814438 0.9479829446142778 -0.11351325652254003
 -0.00013824390460625654 1.5126329826638396e-06 -0.00017265512941618043 1.3328635823243033e-06 0.9479829446142778 -0.11351325652254003 0.8883541468576861 -0.22591512713814438
264000000.0 0.9147832916641949 -0.18305391326201395 0.9589176347693754 -0.09114127227418137 -0.00013682404077869915 7.491335856302694e-06 -0.00017092171609223175 7.656203212039309e-06
 0.9589176347693754 -0.09114127227418137 0.9147832916641949 -0.18305391326201395 -0.00013682404077869915 7.491335856302694e-06 -0.0001708586174136485 5.791492173475435e-06
 -0.00013682404077869915 7.491335856302694e-06 -0.00013682404077869915 7.491335856302694e-06 0.888220911632927 -0.2271130650716477 0.9479651249274623 -0.1141099725172999
 -0.00013687917120999227 5.116335364326266e-06 -0.0001708586174136485 5.791492173475435e-06 0.9479651249274623 -0.1141099725172999 0.888220911632927 -0.2271130650716477
265000000.0 0.9147176488188014 -0.1840232590149011 0.9589149337221045 -0.09161633351800548 -0.00013535496825796143 1.0960752668899756e-05 -0.0001690597721349954 1.2039920881044308e-05
 0.9589149337221045 -0.09161633351800548 0.9147176488188014 -0.1840232590149011 -0.00013535496825796143 1.0960752668899756e-05 -0.0001689497361527726 1.0118957688593649e-05
 -0.00013535496825796143 1.0960752668899756e-05 -0.00013535496825796143 1.0960752668899756e-05 0.8880774673768547 -0.2283138539635638 0.9479425688859496 -0.11470825881521154
 -0.0001354229821517867 8.617611880835868e-06 -0.0001689497361527726 1.0118957688593649e-05 0.9479425688859496 -0.11470825881521154 0.8880774673768547 -0.2283138539635638
266000000.0 0.9146440294827098 -0.1849949423454915 0.9589085163481266 -0.09209259715086693 -0.00013380110728048882 1.4323850349050661e-05 -0.000167090260066298 1.629109987788965e-05
 0.9589085163481266 -0.09209259715086693 0.9146440294827098 -0.1849949423454915 -0.00013380110728048882 1.4323850349050661e-05 -0.00016693551645511083 1.4312121216330904e-05
 -0.00013380110728048882 1.4323850349050661e-05 -0.00013380110728048882 1.4323850349050661e-05 0.8879236069177677 -0.2295170335584432 0.9479151696433947 -0.11530789440075197
 -0.0001338808218251527 1.2013865654503215e-05 -0.00016693551645511083 1.4312121216330904e-05 0.9479151696433947 -0.11530789440075197 0.8879236069177677 -0.2295170335584432
267000000.0 0.9145622699071846 -0.18596859805118043 0.9588983014213441 -0.09256988648332612 -0.00013216808957322096 1.757834350145416e-05 -0.00016502021043914033 2.0406823025401897e-05
 0.9588983014213441 -0.09256988648332612 0.9145622699071846 -0.18596859805118043 -0.00013216808957322096 1.757834350145416e-05 -0.00016482309328103787 1.836817220782294e-05
 -0.00013216808957322096 1.757834350145416e-05 -0.00013216808957322096 1.757834350145416e-05 0.8877591466651291 -0.23072212945180087 0.9478828316046273 -0.11590865111453925
 -0.00013225826150737848 1.530275405922979e-05 -0.00016482309328103787 1.836817220782294e-05 0.9478828316046273 -0.11590865111453925 0.8877591466651291 -0.23072212945180087
268000000.0 0.9144722250114772 -0.18694384971357153 0.9588842167213836 -0.09304801934207259 -0.00013046162155236674 2.072220886843933e-05 -0.00016285674994848874 2.438450081267725e-05
 0.9588842167213836 -0.09304801934207259 0.9144722250114772 -0.18694384971357153 -0.00013046162155236674 2.072220886843933e-05 -0.00016261969287982946 2.228463394596923e-05
 -0.00013046162155236674 2.072220886843933e-05 -0.00013046162155236674 2.072220886843933e-05 0.8875839276285723 -0.23192865418105876 0.9478454709305149 -0.1165102941652261
 -0.00013056094961407937 1.848219312842766e-05 -0.00016261969287982946 2.228463394596923e-05 0.9478454709305149 -0.1165102941652261 0.8875839276285723 -0.23192865418105876
269000000.0 0.9143737691955222 -0.187920310560338 0.9588661994270506 -0.09352680848179924 -0.00012868747398829677 2.3753689483248426e-05 -0.00016060708847201238 2.8221876773851218e-05
 0.9588661994270506 -0.09352680848179924 0.9143737691955222 -0.187920310560338 -0.00012868747398829677 2.3753689483248426e-05 -0.0001603326194454095 2.6059368750586864e-05
 -0.00012868747398829677 2.3753689483248426e-05 -0.00012868747398829677 2.3753689483248426e-05 0.8873978164020606 -0.23313610839606133 0.9478030160274046 -0.1171125826801358
 -0.0001287946015756075 2.155036178708133e-05 -0.0001603326194454095 2.6059368750586864e-05 0.9478030160274046 -0.1171125826801358 0.8873978164020606 -0.23313610839606133
270000000.0 0.9142667971250424 -0.18889758439096677 0.9588441964969678 -0.09400606202780933 -0.00012685147126868305 2.6671298593713343e-05 -0.0001582785055916033 3.191703257397486e-05
 0.9588441964969678 -0.09400606202780933 0.9142667971250424 -0.18889758439096677 -0.00012685147126868305 2.6671298593713343e-05 -0.00015796924125280237 2.9690582865294087e-05
 -0.00012685147126868305 2.6671298593713343e-05 -0.00012685147126868305 2.6671298593713343e-05 0.8872007061065641 -0.2343439821102212 0.9477554080179658 -0.11771527029526754
 -0.00012696498931296922 2.4505705867716027e-05 -0.00015796924125280237 2.9690582865294087e-05 0.9477554080179658 -0.11771527029526754 0.8872007061065641 -0.2343439821102212
271000000.0 0.9141512244836951 -0.18987526656720607 0.9588181650348282 -0.09448558394979834 -0.00012495948024260158 2.947382331118258e-05 -0.00015587833657469997 3.546839274376441e-05
 0.9588181650348282 -0.09448558394979834 0.9141512244836951 -0.18987526656720607 -0.00012495948024260158 2.947382331118258e-05 -0.00015553697625605487 3.3176830966840485e-05
 -0.00012495948024260158 2.947382331118258e-05 -0.00012495948024260158 2.947382331118258e-05 0.8869925172841934 -0.23555175603279727 0.9477026011900251 -0.11831810578504279
 -0.00012507793029507822 2.734694186578743e-05 -0.00015553697625605487 3.3176830966840485e-05 0.9477026011900251 -0.11831810578504279 0.8869925172841934 -0.23555175603279727
272000000.0 0.9140269886865713 -0.1908529450685709 0.9587880726365346 -0.0949651745670344 -0.00012301739863312695 3.216032793574527e-05 -0.00015341395780066065 3.887472900027636e-05
 0.9587880726365346 -0.0949651745670344 0.9140269886865713 -0.1908529450685709 -0.00012301739863312695 3.216032793574527e-05 -0.00015304327713479423 3.6517020233005703e-05
 -0.00012301739863312695 3.216032793574527e-05 -0.00012301739863312695 3.216032793574527e-05 0.8867731987363715 -0.2367589029821562 0.9476445634198325 -0.11892083373185937
 -0.000123139276163887 3.0073060386143333e-05 -0.00015304327713479423 3.6517020233005703e-05 0.9476445634198325 -0.11892083373185937 0.8867731987363715 -0.2367589029821562
273000000.0 0.9138940495490679 -0.19183020161274378 0.9587538977163387 -0.09544463108490235 -0.00012103114301127158 3.473015690544561e-05 -0.00015089277162428868 4.213516408643706e-05
 0.9587538977163387 -0.09544463108490235 0.9138940495490679 -0.19183020161274378 -0.00012103114301127158 3.473015690544561e-05 -0.00015049561578360968 3.9710413901207075e-05
 -0.00012103114301127158 3.473015690544561e-05 -0.00012103114301127158 3.473015690544561e-05 0.886542728298311 -0.23796488937918794 0.9475812765660023 -0.11952319523518846
 -0.0001211549009191646 3.2683329228785874e-05 -0.00015049561578360968 3.9710413901207075e-05 0.9475812765660023 -0.11952319523518846 0.886542728298311 -0.23796488937918794
274000000.0 0.9137523899049297 -0.1928066128401539 0.9587156298090148 -0.09592374816252484 -0.00011900663632993241 3.71829373143346e-05 -0.00014832219067607768 4.5249175058894714e-05
 0.9587156298090148 -0.09592374816252484 0.9137523899049297 -0.1928066128401539 -0.00011900663632993241 3.71829373143346e-05 -0.00014790146724607045 4.275663424665867e-05
 -0.00011900663632993241 3.71829373143346e-05 -0.00011900663632993241 3.71829373143346e-05 0.8863011135418177 -0.23916917681927632 0.947512736830264 -0.12012492865958421
 -0.0001191306886604047 3.517729605923534e-05 -0.00014790146724607045 4.275663424665867e-05 0.947512736830264 -0.12012492865958421 0.8863011135418177 -0.23916917681927632
275000000.0 0.9136020161670452 -0.1937817515613971 0.9586732698449492 -0.09640231851086312 -0.00011694979502274076 3.951858094195449e-05 -0.00014570962160673288 4.8216595950969583e-05
 0.9586732698449492 -0.09640231851086312 0.9136020161670452 -0.1937817515613971 -0.00011694979502274076 3.951858094195449e-05 -0.00014526829310332657 4.5655664906418826e-05
 -0.00011694979502274076 3.951858094195449e-05 -0.00011694979502274076 3.951858094195449e-05 0.8860483923982719 -0.24037122372042777 0.9474389550810456 -0.12072577042059927
 -0.00011707252088949355 3.755479060645312e-05 -0.00014526829310332657 4.5655664906418826e-05 0.9474389550810456 -0.12072577042059927 0.8860483923982719 -0.24037122372042777
276000000.0 0.9134429588244806 -0.19475518806551695 0.9586268303950182 -0.09688013352040323 -0.00011486651567934778 4.1737285735226025e-05 -0.00014306244829200582 5.1037619735592454e-05
 0.9586268303950182 -0.09688013352040323 0.9134429588244806 -0.19475518806551695 -0.00011486651567934778 4.1737285735226025e-05 -0.00014260352433585147 4.840785247398671e-05
 -0.00011486651567934778 4.1737285735226025e-05 -0.00011486651567934778 4.1737285735226025e-05 0.8857846336935395 -0.241570487044302 0.9473599571358647 -0.12132545580717512
 -0.00011498626338432062 3.981592632954861e-05 -0.00014260352433585147 4.840785247398671e-05 0.9473599571358647 -0.12132545580717512 0.8857846336935395 -0.241570487044302
277000000.0 0.9132752728691511 -0.19572649148647817 0.9585763358820518 -0.09735698391718932 -0.00011276266131562351 4.383953668279686e-05 -0.00014038801452273861 5.3712799512159524e-05
 0.9585763358820518 -0.09735698391718932 0.9132752728691511 -0.19572649148647817 -0.00011276266131562351 4.383953668279686e-05 -0.00013991454368585544 5.1013907288374476e-05
 -0.00011276266131562351 4.383953668279686e-05 -0.00011276266131562351 4.383953668279686e-05 0.8855099375865704 -0.24276642408599147 0.9472757839984736 -0.1219237198386513
 -0.00011287775266038996 4.196110149346631e-05 -0.00013991454368585544 5.1013907288374476e-05 0.9472757839984736 -0.1219237198386513 0.8855099375865704 -0.24276642408599147
278000000.0 0.9130990381455512 -0.19669523122445015 0.9585218227556987 -0.09783266044563539 -0.00011064404726447028 4.582610602174286e-05 -0.00013769360621419675 5.624304884122269e-05
 0.9585218227556987 -0.09783266044563539 0.9130990381455512 -0.19669523122445015 -0.00011064404726447028 4.582610602174286e-05 -0.00013720866755717533 5.34749033418221e-05
 -0.00011064404726447028 4.582610602174286e-05 -0.00011064404726447028 4.582610602174286e-05 0.8852244359035277 -0.24395849432748776 0.9471864920467497 -0.12252029815409397
 -0.00011075278204464786 4.399099959355324e-05 -0.00013720866755717533 5.34749033418221e-05 0.9471864920467497 -0.12252029815409397 0.8852244359035277 -0.24395849432748776
279000000.0 0.9129143596170479 -0.19766097841777536 0.9584633396275388 -0.09830695457617707 -0.00010851642672034485 4.769805271715413e-05 -0.00013498643317814865 5.8629641151955404e-05
 0.9584633396275388 -0.09830695457617707 0.9129143596170479 -0.19766097841777536 -0.00010851642672034485 4.769805271715413e-05 -0.00013449312749889272 5.579227723160914e-05
 -0.00010851642672034485 4.769805271715413e-05 -0.00010851642672034485 4.769805271715413e-05 0.8849282923594936 -0.24514616134880804 0.9470921531673886 -0.1231149279311737
 -0.00010861708739308731 4.59065890694042e-05 -0.00013449312749889272 5.579227723160914e-05 0.9470921531673886 -0.1231149279311737 0.8849282923594936 -0.24514616134880804
280000000.0 0.9127213675424153 -0.19862330746075785 0.9584009473633697 -0.0987796592354718 -0.00010638547597807842 4.945672115661953e-05 -0.00013227361051062973 6.0874208149439864e-05
 0.9584009473633697 -0.0987796592354718 0.9127213675424153 -0.19862330746075785 -0.00010638547597807842 4.945672115661953e-05 -0.00013177505132845057 5.796782608380507e-05
 -0.00010638547597807842 4.945672115661953e-05 -0.00010638547597807842 4.945672115661953e-05 0.8846217026600989 -0.24632889478982975 0.9469928548335916 -0.12370734883137294
 -0.0001064763324911463 4.7709122249718554e-05 -0.00013177505132845057 5.796782608380507e-05 0.9469928548335916 -0.12370734883137294 0.8846217026600989 -0.24632889478982975
281000000.0 0.912520217556534 -0.19958179756163386 0.9583347191297056 -0.0992505695564839 -0.00010425677941408576 5.11037390039794e-05 -0.0001295621396577881 6.297873715202665e-05
 0.9583347191297056 -0.0992505695564839 0.912520217556534 -0.19958179756163386 -0.00010425677941408576 5.11037390039794e-05 -0.00012906144395951393 6.000370438029916e-05
 -0.00010425677941408576 5.11037390039794e-05 -0.00010425677941408576 5.11037390039794e-05 0.884304894475848 -0.24750617235491798 0.9468887001221346 -0.12429730396783058
 -0.00010433609418339779 4.940013347209502e-05 -0.00012906144395951393 6.000370438029916e-05 0.9468887001221346 -0.12429730396783058 0.884304894475848 -0.24750617235491798
282000000.0 0.9123110906495477 -0.2005360343343593 0.9582647403916967 -0.09971948364543472 -0.00010213581426545519 5.264101415997367e-05 -0.00012685888923150753 6.494556729337549e-05
 0.9582647403916967 -0.09971948364543472 0.9123110906495477 -0.2005360343343593 -0.00010213581426545519 5.264101415997367e-05 -0.00012635916800909417 6.190241962511294e-05
 -0.00010213581426545519 5.264101415997367e-05 -0.00010213581426545519 5.264101415997367e-05 0.883978127282433 -0.24867748185151453 0.9467798076664343 -0.12488454089168
 -0.00010220184728642329 5.098143632478662e-05 -0.00012635916800909417 6.190241962511294e-05 0.9467798076664343 -0.12488454089168 0.883978127282433 -0.24867748185151453
283000000.0 0.912094193039178 -0.20148561141709406 0.9581911088598761 -0.10018620336223508 -0.00010002793526961347 5.407073078157139e-05 -0.000124170575655523 6.677738452927652e-05
 0.9581911088598761 -0.10018620336223508 0.912094193039178 -0.20148561141709406 -0.00010002793526961347 5.407073078157139e-05 -0.00012367492426742526 6.366682679179944e-05
 -0.00010002793526961347 5.407073078157139e-05 -0.00010002793526961347 5.407073078157139e-05 0.8836416920609885 -0.2498423232529551 0.9466663115425317 -0.12546881259228915
 -0.00010007894934597817 5.245511996142355e-05 -0.00012367492426742526 6.366682679179944e-05 0.9466663115425317 -0.12546881259228915 0.8836416920609885 -0.2498423232529551
284000000.0 0.9118697559314615 -0.20243013210957428 0.9581139343833976 -0.10065053511067212 -9.793835923414702e-05 5.539534431683566e-05 -0.00012150374373132332 6.847721539599374e-05
 0.9581139343833976 -0.10065053511067212 0.9118697559314615 -0.20243013210957428 -9.793835923414702e-05 5.539534431683566e-05 -0.00012101523212256757 6.530012150068636e-05
 -9.793835923414702e-05 5.539534431683566e-05 -9.793835923414702e-05 5.539534431683566e-05 0.8832959108530085 -0.25100021077494844 0.9465483610852727 -0.12604987850640123
 -9.797262530647388e-05 5.382354444460798e-05 -0.00012101523212256757 6.530012150068636e-05 0.9465483610852727 -0.12604987850640123 0.8832959108530085 -0.25100021077494844
285000000.0 0.9116380351657647 -0.20336921102089187 0.9580333387877112 -0.1011122906343151 -9.587214961281859e-05 5.6617575518134766e-05 -0.00011886474722114781 7.004841947461365e-05
 0.9580333387877112 -0.1011122906343151 0.9116380351657647 -0.20336921102089187 -9.587214961281859e-05 5.6617575518134766e-05 -0.00011838641003960522 6.680583188277424e-05
 -9.587214961281859e-05 5.6617575518134766e-05 -9.587214961281859e-05 5.6617575518134766e-05 0.8829411361655066 -0.25215067495434723 0.9464261206323734 -0.12662750553076518
 -9.588795216731202e-05 5.5089335080065285e-05 -0.00011838641003960522 6.680583188277424e-05 0.9464261206323734 -0.12662750553076518 0.8829411361655066 -0.25215067495434723
286000000.0 0.9113993107406654 -0.20430247571858523 0.957949455654984 -0.10157128781377699 -9.383420116974004e-05 5.774040340331656e-05 -0.00011625972955267181 7.149468052470186e-05
 0.957949455654984 -0.10157128781377699 0.9113993107406654 -0.20430247571858523 -9.383420116974004e-05 5.774040340331656e-05 -0.00011579455620142282 6.818780909622188e-05
 -9.383420116974004e-05 5.774040340331656e-05 -9.383420116974004e-05 5.774040340331656e-05 0.8825777502230076 -0.25329326471815744 0.9462997691945091 -0.12720146903250823
 -9.382984370659889e-05 5.625537570967016e-05 -0.00011579455620142282 6.818780909622188e-05 0.9462997691945091 -0.12720146903250823 0.8825777502230076 -0.25329326471815744
287000000.0 0.9111538862180739 -0.20522956836940706 0.9578624300459222 -0.10202735146073173 -9.182922481891814e-05 5.876705714209001e-05 -0.00011369460475640138 7.281999626038362e-05
 0.9578624300459222 -0.10202735146073173 0.9111538862180739 -0.20522956836940706 -9.182922481891814e-05 5.876705714209001e-05 -0.00011324552942427692 6.945021647145961e-05
 -9.182922481891814e-05 5.876705714209001e-05 -9.182922481891814e-05 5.876705714209001e-05 0.8822061640640289 -0.2544275494300999 0.9461695000501049 -0.12777155385116318
 -9.180303535811646e-05 5.7324800939122814e-05 -0.00011324552942427692 6.945021647145961e-05 0.9461695000501049 -0.12777155385116318 0.8822061640640289 -0.2544275494300999
288000000.0 0.9109020880038443 -0.20615014736164478 0.9577724181620968 -0.10248031410381789 -8.98617327308898e-05 5.9701006853215827e-05 -0.00011117503875222455 7.402866675269788e-05
 0.9577724181620968 -0.10248031410381789 0.9109020880038443 -0.20615014736164478 -8.98617327308898e-05 5.9701006853215827e-05 -0.00011074493046656519 7.059751727197871e-05
 -8.98617327308898e-05 5.9701006853215827e-05 -8.98617327308898e-05 5.9701006853215827e-05 0.8818268164809007 -0.2555531209015507 0.946035520264045 -0.12833755528603824
 -8.981206933203869e-05 5.830098728424565e-05 -0.00011074493046656519 7.059751727197871e-05 0.946035520264045 -0.12833755528603824 0.8818268164809007 -0.2555531209015507
289000000.0 0.9106442645040678 -0.20706388889850225 0.9576795869483014 -0.10293001676140147 -8.793602380177844e-05 6.054595330714592e-05 -0.00010870643110585844 7.512528145361474e-05
 0.9576795869483014 -0.10293001676140147 0.9106442645040678 -0.20706388889850225 -8.793602380177844e-05 6.054595330714592e-05 -0.00010829808385321497 7.163446106964356e-05
 -8.793602380177844e-05 6.054595330714592e-05 -8.793602380177844e-05 6.054595330714592e-05 0.881440172803019 -0.2566695953532817 0.9458980501301281 -0.1288992800623621
 -8.786128007363261e-05 5.9187543228754745e-05 -0.00010829808385321497 7.163446106964356e-05 0.9458980501301281 -0.1288992800623621 0.881440172803019 -0.2566695953532817
290000000.0 0.9103807851572528 -0.2079704885517468 0.9575841136349801 -0.10337630969599741 -8.605616958276441e-05 6.130581653835021e-05 -0.0001062938973789794 7.611470484933365e-05
 0.9575841136349801 -0.10337630969599741 0.9103807851572528 -0.2079704885517468 -8.605616958276441e-05 6.130581653835021e-05 -0.00010591002034085768 7.256606874583035e-05
 -8.605616958276441e-05 6.130581653835021e-05 -8.605616958276441e-05 6.130581653835021e-05 0.8810467235249698 -0.25777661531419277 0.945757322537726 -0.12945654726953723
 -8.595478015699502e-05 5.998829819581702e-05 -0.00010591002034085768 7.256606874583035e-05 0.945757322537726 -0.12945654726953723 0.8810467235249698 -0.25777661531419277
291000000.0 0.9101120393436511 -0.2088696627646548 0.9574861852212463 -0.10381905314507467 -8.422600076955123e-05 6.198472338163506e-05 -0.00010394225219851407 7.70020607632498e-05
 0.9574861852212463 -0.10381905314507467 0.9101120393436511 -0.2088696627646548 -8.422600076955123e-05 6.198472338163506e-05 -0.00010358546015030285 7.339761614266558e-05
 -8.422600076955123e-05 6.198472338163506e-05 -8.422600076955123e-05 6.198472338163506e-05 0.8806469827823232 -0.2588738514431042 0.9456135822637801 -0.1300091892647358
 -8.409644671263986e-05 6.0707290445643176e-05 -0.00010358546015030285 7.339761614266558e-05 0.9456135822637801 -0.1300091892647358 0.8806469827823232 -0.2588738514431042
292000000.0 0.9098384351740832 -0.2097611502932159 0.9573859978995557 -0.10425811802291222 -8.244909435188633e-05 6.258699395715809e-05 -0.00010165599317081821 7.77927153421231e-05
 0.9573859978995557 -0.10425811802291222 0.9098384351740832 -0.2097611502932159 -8.244909435188633e-05 6.258699395715809e-05 -0.00010132879709271565 7.413461640195071e-05
 -8.244909435188633e-05 6.258699395715809e-05 -8.244909435188633e-05 6.258699395715809e-05 0.880241486679319 -0.2599610042597261 0.9454670851919279 -0.13055705253507854
 -8.228990848841446e-05 6.134875392165535e-05 -0.00010132879709271565 7.413461640195071e-05 0.9454670851919279 -0.13055705253507854 0.880241486679319 -0.2599610042597261
293000000.0 0.9095603981617447 -0.2106447135746179 0.957283756423632 -0.10469338658821502 -8.072876152247329e-05 6.311712713945055e-05 -9.943928576522022e-05 7.849225877234369e-05
 0.957283756423632 -0.10469338658821502 0.9095603981617447 -0.2106447135746179 -8.072876152247329e-05 6.311712713945055e-05 -9.914408371425745e-05 7.478280104284594e-05
 -8.072876152247329e-05 6.311712713945055e-05 -8.072876152247329e-05 6.311712713945055e-05 0.8798307914740914 -0.26103780577112984 0.9453180974612684 -0.1310999985117071
 -8.053853364270708e-05 6.191710407828464e-05 -9.914408371425745e-05 7.478280104284594e-05 0.9453180974612684 -0.1310999985117071 0.8798307914740914 -0.26103780577112984
294000000.0 0.9092783697815972 -0.21152014001221134 0.9571796734217904 -0.10512475307225458 -7.906803644266979e-05 6.357978505641677e-05 -9.729594928859235e-05 7.910648578656582e-05
 0.9571796734217904 -0.10512475307225458 0.9092783697815972 -0.21152014001221134 -7.906803644266979e-05 6.357978505641677e-05 -9.70350175807272e-05 7.534809984284838e-05
 -7.906803644266979e-05 6.357978505641677e-05 -7.906803644266979e-05 6.357978505641677e-05 0.8794154716285115 -0.26210402098041635 0.9451668945479581 -0.13163790432922645
 -7.884541836718293e-05 6.241692273404234e-05 -9.70350175807272e-05 7.534809984284838e-05 0.9451668945479581 -0.13163790432922645 0.8794154716285115 -0.26210402098041635
295000000.0 0.9089928059230841 -0.21238724316646976 0.9570739686583457 -0.10555212426246166 -7.746966595917469e-05 6.397977667484909e-05 -9.522944406824076e-05 7.964137503418809e-05
 0.9570739686583457 -0.10555212426246166 0.9089928059230841 -0.21238724316646976 -7.746966595917469e-05 6.397977667484909e-05 -9.500492881894813e-05 7.583661959984545e-05
 -7.746966595917469e-05 6.397977667484909e-05 -7.746966595917469e-05 6.397977667484909e-05 0.8789961177311154 -0.2631594492647954 0.9450137602835097 -0.1321706635242118
 -7.72133764333221e-05 6.285294200403334e-05 -9.500492881894813e-05 7.583661959984545e-05 0.9450137602835097 -0.1321706635242118 0.8789961177311154 -0.2631594492647954
296000000.0 0.9087041752430056 -0.21324586384190058 0.9569668682463278 -0.10597542003659215 -7.593610036146419e-05 6.432204053930692e-05 -9.32428599544603e-05 8.010306740199099e-05
 0.9569668682463278 -0.10597542003659215 0.9087041752430056 -0.21324586384190058 -7.593610036146419e-05 6.432204053930692e-05 -9.305676902526245e-05 7.625462186585022e-05
 -7.593610036146419e-05 6.432204053930692e-05 -7.593610036146419e-05 6.432204053930692e-05 0.878573334302959 -0.2642039256110098 0.9448589858143411 -0.13269818666680389
 -7.56449297528265e-05 6.3230027376367e-05 -9.305676902526245e-05 7.625462186585022e-05 0.9448589858143411 -0.13269818666680389 0.878573334302959 -0.2642039256110098
297000000.0 0.9084129574264537 -0.21409587106043984 0.9568586038152427 -0.10639457384286333 -7.446948526406994e-05 6.461162674110767e-05 -9.133890624663336e-05 8.049784338350472e-05
 0.9568586038152427 -0.10639457384286333 0.9084129574264537 -0.21409587106043984 -7.446948526406994e-05 6.461162674110767e-05 -9.119310164359848e-05 7.660849975522953e-05
 -7.446948526406994e-05 6.461162674110767e-05 -7.446948526406994e-05 6.461162674110767e-05 0.8781477374975177 -0.2652373216968757 0.9447028685077559 -0.1332204019197971
 -7.414230003653508e-05 6.355316000682998e-05 -9.119310164359848e-05 7.660849975522953e-05 0.9447028685077559 -0.1332204019197971 0.8781477374975177 -0.2652373216968757
298000000.0 0.9081196413647269 -0.21493716291255258 0.9567494116381079 -0.10680953312178026 -7.307165469093487e-05 6.485367820350757e-05 -8.951990313780889e-05 8.083209960717219e-05
 0.9567494116381079 -0.10680953312178026 0.9081196413647269 -0.21493716291255258 -7.307165469093487e-05 6.485367820350757e-05 -8.94160939061956e-05 7.690475394162225e-05
 -7.307165469093487e-05 6.485367820350757e-05 -7.307165469093487e-05 6.485367820350757e-05 0.8777199527069649 -0.2662595468087361 0.9445457108101274 -0.13373725552010754
 -7.270740162987223e-05 6.382741831554492e-05 -8.94160939061956e-05 7.690475394162225e-05 0.9445457108101274 -0.13373725552010754 0.8777199527069649 -0.2662595468087361
299000000.0 0.907824723260067 -0.21576966727808836 0.9566395317224441 -0.10722025966576165 -7.174412543110949e-05 6.50534113777512e-05 -8.778777476238892e-05 8.111232464390303e-05
 0.9566395317224441 -0.10722025966576165 0.907824723260067 -0.21576966727808836 -7.174412543110949e-05 6.50534113777512e-05 -8.772751041934261e-05 7.71499679681186e-05
 -7.174412543110949e-05 6.50534113777512e-05 -7.174412543110949e-05 6.50534113777512e-05 0.8772906120882482 -0.2672705485857663 0.9443878190636174 -0.1342487121780231
 -7.134183559512112e-05 6.405795897800409e-05 -8.772751041934261e-05 7.71499679681186e-05 0.9443878190636174 -0.1342487121780231 0.8772906120882482 -0.2672705485857663
300000000.0 0.9075287046679231 -0.21659334240986103 0.95652920687033 -0.10762672991311832 -7.048809272604058e-05 6.521609645240542e-05 -8.614404391996774e-05 8.134507422401033e-05
 0.95652920687033 -0.10762672991311832 0.9075287046679231 -0.21659334240986103 -7.048809272604058e-05 6.521609645240542e-05 -8.612870846449302e-05 7.735078300446259e-05
 -7.048809272604058e-05 6.521609645240542e-05 -7.048809272604058e-05 6.521609645240542e-05 0.876860352023368 -0.2682703135833647 0.9442295022882368 -0.13475475539027176
 -7.004688510203591e-05 6.42499974106889e-05 -8.612870846449302e-05 7.735078300446259e-05 0.9442295022882368 -0.13475475539027176 0.876860352023368 -0.2682703135833647
301000000.0 0.9072320904881941 -0.2174081773739561 0.9564186817129815 -0.1080289351734248 -6.930442733876751e-05 6.534703718511985e-05 -8.458982853567549e-05 8.153694600161541e-05
 0.9564186817129815 -0.1080289351734248 0.9072320904881941 -0.2174081773739561 -6.930442733876751e-05 6.534703718511985e-05 -8.462063507204453e-05 7.751387219288175e-05
 -6.930442733876751e-05 6.534703718511985e-05 -6.930442733876751e-05 6.534703718511985e-05 0.8764298105290806 -0.26925886764925266 0.9440710709364949 -0.13525538766357537
 -6.882351217859745e-05 6.440878785833262e-05 -8.462063507204453e-05 7.751387219288175e-05 0.9440710709364949 -0.13525538766357537 0.8764298105290806 -0.26925886764925266
302000000.0 0.9069353869175322 -0.2182141923418832 0.956308201725639 -0.10842688178185393 -6.819367404460681e-05 6.545155047156654e-05 -8.312583990372739e-05 8.1694554011255e-05
 0.956308201725639 -0.10842688178185393 0.9069353869175322 -0.2182141923418832 -6.819367404460681e-05 6.545155047156654e-05 -8.320382591105813e-05 7.764591473049891e-05
 -6.819367404460681e-05 6.545155047156654e-05 -6.819367404460681e-05 6.545155047156654e-05 0.8759996246319295 -0.27023627610740775 0.943912835628213 -0.13575063064608847
 -6.767235586319285e-05 6.45396031956292e-05 -8.320382591105813e-05 7.764591473049891e-05 0.943912835628213 -0.13575063064608847 0.8759996246319295 -0.27023627610740775
303000000.0 0.9066390993753034 -0.21901143873087858 0.9561980122287954 -0.10882059118061901 -6.715605157150417e-05 6.553494577068815e-05 -8.175238274645316e-05 8.182450296651075e-05
 0.9561980122287954 -0.10882059118061901 0.9066390993753034 -0.21901143873087858 -6.715605157150417e-05 6.553494577068815e-05 -8.187840602344443e-05 7.775356984103239e-05
 -6.715605157150417e-05 6.553494577068815e-05 -6.715605157150417e-05 6.553494577068815e-05 0.8755704277250104 -0.271202643746528 0.943755105873369 -0.13624052516486393
 -6.659373178829697e-05 6.464771456073985e-05 -8.187840602344443e-05 7.775356984103239e-05 0.943755105873369 -0.13624052516486393 0.8755704277250104 -0.271202643746528
304000000.0 0.9063437304161753 -0.2197999991899205 0.9560883573819857 -0.10921009992626932 -6.619145400633995e-05 6.560250450846132e-05 -8.046935710609172e-05 8.193336255390483e-05
 0.9560883573819857 -0.10921009992626932 0.9063437304161753 -0.2197999991899205 -6.619145400633995e-05 6.560250450846132e-05 -8.064409241586738e-05 7.784345079153865e-05
 -6.619145400633995e-05 6.560250450846132e-05 -6.619145400633995e-05 6.560250450846132e-05 0.8751428469231971 -0.27215811461134704 0.9435981887909978 -0.13672513116825838
 -6.558763321401695e-05 6.473837094120873e-05 -8.064409241586738e-05 7.784345079153865e-05 0.9435981887909978 -0.13672513116825838 0.8751428469231971 -0.27215811461134704
305000000.0 0.9060497776425296 -0.2205799874302933 0.9559794791764782 -0.10959545962218864 -6.529945367123513e-05 6.565945958408196e-05 -7.927626207128163e-05 8.202764187700702e-05
 0.9559794791764782 -0.10959545962218864 0.9060497776425296 -0.2205799874302933 -6.529945367123513e-05 6.565945958408196e-05 -7.950019850701913e-05 7.792209911124778e-05
 -6.529945367123513e-05 6.565945958408196e-05 -6.529945367123513e-05 6.565945958408196e-05 0.8747175004336982 -0.2731028715967896 0.9434423878322922 -0.13720452757301144
 -6.465373351778042e-05 6.481677883481057e-05 -7.950019850701913e-05 7.792209911124778e-05 0.9434423878322922 -0.13720452757301144 0.8747175004336982 -0.2731028715967896
306000000.0 0.9057577316299885 -0.22135154790086034 0.9558716164332617 -0.109976736776293 -6.447930546151562e-05 6.571097510278327e-05 -7.81722013246905e-05 8.211376420562923e-05
 0.9558716164332617 -0.109976736776293 0.9057577316299885 -0.22135154790086034 -6.447930546151562e-05 6.571097510278327e-05 -7.844564041223713e-05 7.799595916904597e-05
 -6.447930546151562e-05 6.571097510278327e-05 -6.447930546151562e-05 6.571097510278327e-05 0.8742949949587681 -0.27403713584662226 0.9432880015160284 -0.13767881201651458
 -6.379139013418957e-05 6.488808210837955e-05 -7.844564041223713e-05 7.799595916904597e-05 0.9432880015160284 -0.13767881201651458 0.8742949949587681 -0.27403713584662226
307000000.0 0.9054680738792791 -0.22211485530951325 0.9557650038126949 -0.11035401258454686 -6.372995262461634e-05 6.5762126458375e-05 -7.715589048282658e-05 8.219804218315523e-05
 0.9557650038126949 -0.11035401258454686 0.9054680738792791 -0.22211485530951325 -6.372995262461634e-05 6.5762126458375e-05 -7.747894503188825e-05 7.807135326387382e-05
 -6.372995262461634e-05 6.5762126458375e-05 -6.372995262461634e-05 6.5762126458375e-05 0.8738759231471488 -0.2749611659599108 0.9431353221843688 -0.13814810051560286
 -6.299964992679459e-05 6.495734217678592e-05 -7.747894503188825e-05 7.807135326387382e-05 0.9431353221843688 -0.13814810051560286 0.8738759231471488 -0.2749611659599108
308000000.0 0.9051812748074445 -0.22287011399356127 0.9556598708420897 -0.11072738264154129 -6.305003394703328e-05 6.581788088607114e-05 -7.622566618398617e-05 8.228665364147259e-05
 0.9556598708420897 -0.11072738264154129 0.9051812748074445 -0.22287011399356127 -6.305003394703328e-05 6.581788088607114e-05 -7.659825989476081e-05 7.815445737827087e-05
 -6.305003394703328e-05 6.581788088607114e-05 -6.305003394703328e-05 6.581788088607114e-05 0.8734608611104085 -0.2758752570102132 0.9429846347869121 -0.1386125270339876
 -6.22772559614438e-05 6.502951862195613e-05 -7.659825989476081e-05 7.815445737827087e-05 0.9429846347869121 -0.1386125270339876 0.8734608611104085 -0.2758752570102132
309000000.0 0.904897791791063 -0.22361755714309772 0.9555564409673515 -0.11109695658000013 -6.243789230463159e-05 6.588307860228324e-05 -7.537949686573161e-05 8.238561816770925e-05
 0.9555564409673515 -0.11109695658000013 0.904897791791063 -0.22361755714309772 -6.243789230463159e-05 6.588307860228324e-05 -7.580136469310686e-05 7.825127773955776e-05
 -6.243789230463159e-05 6.588307860228324e-05 -6.243789230463159e-05 6.588307860228324e-05 0.8730503660197326 -0.27677973938399203 0.9428362157005893 -0.1390722429612001
 -6.162265563912112e-05 6.510945036819517e-05 -7.580136469310686e-05 7.825127773955776e-05 0.9428362157005893 -0.1390722429612001 0.8730503660197326 -0.27677973938399203
310000000.0 0.9046180672736317 -0.22435744588258488 0.9554549306345483 -0.11146285764165104 -6.189158452036479e-05 6.596241464285617e-05 -7.461499515947222e-05 8.250077456011285e-05
 0.9554549306345483 -0.11146285764165104 0.9046180672736317 -0.22435744588258488 -6.189158452036479e-05 6.596241464285617e-05 -7.508568443216688e-05 7.836762832581431e-05
 -6.189158452036479e-05 6.596241464285617e-05 -6.189158452036479e-05 6.596241464285617e-05 0.8726449737979558 -0.2776749774462045 0.9426903315926703 -0.13952741650664927
 -6.103401013494402e-05 6.520183752513178e-05 -7.508568443216688e-05 7.836762832581431e-05 0.9426903315926703 -0.13952741650664927 0.8726449737979558 -0.2776749774462045
311000000.0 0.9043425269486546 -0.22509006821705144 0.955355548407 -0.11182522218246792 -6.140889246290704e-05 6.60604215048066e-05 -7.392943181682652e-05 8.263775930205216e-05
 0.955355548407 -0.11182522218246792 0.9043425269486546 -0.22509006821705144 -6.140889246290704e-05 6.60604215048066e-05 -7.444830410417987e-05 7.850910944498867e-05
 -6.140889246290704e-05 6.60604215048066e-05 -6.140889246290704e-05 6.60604215048066e-05 0.8722451969206939 -0.27856136804239734 0.9425472383337024 -0.13997823201306364
 -6.050920507943883e-05 6.531122400344933e-05 -7.444830410417987e-05 7.850910944498867e-05 0.9425472383337024 -0.13997823201306364 0.8722451969206939 -0.27856136804239734
312000000.0 0.9040715780292153 -0.22581573785034878 0.9552584941231254 -0.11218419911579568 -6.0987335309997545e-05 6.618145268908492e-05 -7.331975107065589e-05 8.280198617341349e-05
 0.9552584941231254 -0.11218419911579568 0.9040715780292153 -0.22581573785034878 -6.0987335309997545e-05 6.618145268908492e-05 -7.388598478521141e-05 7.868108750531802e-05
 -6.0987335309997545e-05 6.618145268908492e-05 -6.0987335309997545e-05 6.618145268908492e-05 0.8718515223393717 -0.2794393388478728 0.9424071799667222 -0.14042488919420773
 -6.0045862408465454e-05 6.544198100127752e-05 -7.388598478521141e-05 7.868108750531802e-05 0.9424071799667222 -0.14042488919420773 0.8718515223393717 -0.2794393388478728
313000000.0 0.9038056076139779 -0.22653479288388406 0.9551639580998704 -0.11253994929734026 -6.062418289157016e-05 6.632966723334962e-05 -7.278258732312738e-05 8.29986271077689e-05
 0.9551639580998704 -0.11253994929734026 0.9038056076139779 -0.22653479288388406 -6.062418289157016e-05 6.632966723334962e-05 -7.339518104276459e-05 7.888867608391134e-05
 -6.062418289157016e-05 6.632966723334962e-05 -6.062418289157016e-05 6.632966723334962e-05 0.8714644095377436 -0.28030934657561796 0.9422703877385187 -0.14086760230232157
 -5.9641353299373285e-05 6.559829145083992e-05 -7.339518104276459e-05 7.888867608391134e-05 0.9422703877385187 -0.14086760230232157 0.8714644095377436 -0.28030934657561796
314000000.0 0.903544981158584 -0.2272475944050907 0.9550721203861011 -0.11289264485642572 -6.031647002009484e-05 6.650901531435347e-05 -7.231428304401298e-05 8.323259439177589e-05
 0.9550721203861011 -0.11289264485642572 0.903544981158584 -0.2272475944050907 -6.031647002009484e-05 6.650901531435347e-05 -7.297205953319896e-05 7.913671838802716e-05
 -6.031647002009484e-05 6.650901531435347e-05 -6.031647002009484e-05 6.650901531435347e-05 0.8710842887322146 -0.28117187505563157 0.9421370791981155 -0.14130659923120845
 -5.929281210323247e-05 6.578413550579493e-05 -7.297205953319896e-05 7.913671838802716e-05 0.9421370791981155 -0.14130659923120845 0.8710842887322146 -0.28117187505563157
315000000.0 0.9032900410604136 -0.22795452497563934 0.9549831500698491 -0.1132424684782753 -6.006101170909176e-05 6.67232249894461e-05 -7.191090775477291e-05 8.350852429053624e-05
 0.9549831500698491 -0.1132424684782753 0.9032900410604136 -0.22795452497563934 -6.006101170909176e-05 6.67232249894461e-05 -7.261251866057444e-05 7.942977119046739e-05
 -6.006101170909176e-05 6.67232249894461e-05 -6.006101170909176e-05 6.67232249894461e-05 0.8707115592248802 -0.282027433199091 0.9420074573669834 -0.1417421205613065
 -5.8997151176400247e-05 6.600327713983658e-05 -7.261251866057444e-05 7.942977119046739e-05 0.9420074573669834 -0.1417421205613065 0.8707115592248802 -0.282027433199091
316000000.0 0.9030411053635581 -0.2286559870299875 0.9548972046427642 -0.11358961264236911 -5.985441917554543e-05 6.697579013605403e-05 -7.156827796786258e-05 8.38307621692823e-05
 0.9548972046427642 -0.11358961264236911 0.9030411053635581 -0.2286559870299875 -5.985441917554543e-05 6.697579013605403e-05 -7.23122091627198e-05 7.977209030681364e-05
 -5.985441917554543e-05 6.697579013605403e-05 -5.985441917554543e-05 6.697579013605403e-05 0.87034658791677 -0.282876552861429 0.9418817099848236 -0.14217441855341012
 -5.875107650930872e-05 6.625925191668232e-05 -7.23122091627198e-05 7.977209030681364e-05 0.9418817099848236 -0.14217441855341012 0.87034658791677 -0.282876552861429
317000000.0 0.9027984665897367 -0.22935240119534556 0.9548144294246103 -0.11393427882217352 -5.969311651799626e-05 6.7269959636977e-05 -7.128197794620062e-05 8.420334916798578e-05
 0.9548144294246103 -0.11393427882217352 0.9027984665897367 -0.22935240119534556 -5.969311651799626e-05 6.7269959636977e-05 -7.206655548614266e-05 8.016761766815689e-05
 -5.969311651799626e-05 6.7269959636977e-05 -5.969311651799626e-05 6.7269959636977e-05 0.8699897079872896 -0.28371978661884834 0.9417600088340279 -0.14260375609794138
 -5.8551104046253074e-05 6.655535598073835e-05 -7.206655548614266e-05 8.016761766815689e-05 0.9417600088340279 -0.14260375609794138 0.8699897079872896 -0.28371978661884834
318000000.0 0.9025623906997149 -0.230044204544473 0.9547349570500591 -0.11427667665170028 -5.957335795943868e-05 6.760872784809983e-05 -7.10473811448517e-05 8.46300104715046e-05
 0.9547349570500591 -0.11427667665170028 0.9025623906997149 -0.230044204544473 -5.957335795943868e-05 6.760872784809983e-05 -7.187077780885977e-05 8.061997002873192e-05
 -5.957335795943868e-05 6.760872784809983e-05 -5.957335795943868e-05 6.760872784809983e-05 0.8696412177443587 -0.2845577054730849 0.9416425091452338 -0.1430304056268422
 -5.8393576587131937e-05 6.689463630665605e-05 -7.187077780885977e-05 8.061997002873192e-05 0.9416425091452338 -0.1430304056268422 0.8696412177443587 -0.2845577054730849
319000000.0 0.9023331161885996 -0.2307318487929153 0.9546589070194766 -0.11461702306445559 -5.94912455428007e-05 6.799482637382873e-05 -7.085967219569217e-05 8.511414520389613e-05
 0.9546589070194766 -0.11461702306445559 0.9023331161885996 -0.2307318487929153 -5.94912455428007e-05 6.799482637382873e-05 -7.171991456931127e-05 8.113242933366856e-05
 -5.94912455428007e-05 6.799482637382873e-05 -5.94912455428007e-05 6.799482637382873e-05 0.8693013796482433 -0.2853908964993463 0.9415293490856421 -0.14345464799523244
 -5.827468116054794e-05 6.727988223484574e-05 -7.171991456931127e-05 8.113242933366856e-05 0.9415293490856421 -0.14345464799523244 0.8693013796482433 -0.2853908964993463
320000000.0 0.902110853317231 -0.23141579845236573 0.954586385314844 -0.11495554141038772 -5.944274716669981e-05 6.843071716438436e-05 -7.071386929611298e-05 8.565881796173084e-05
 0.954586385314844 -0.11495554141038772 0.902110853317231 -0.23141579845236573 -5.944274716669981e-05 6.843071716438436e-05 -7.160884536018621e-05 8.170793475810566e-05
 -5.944274716669981e-05 6.843071716438436e-05 -5.944274716669981e-05 6.843071716438436e-05 0.8689704195106112 -0.28621996045230247 0.9414206493310787 -0.14387677133997795
 -5.8190466757394966e-05 6.771361830895056e-05 -7.160884536018621e-05 8.170793475810566e-05 0.9414206493310787 -0.14387677133997795 0.8689704195106112 -0.28621996045230247
321000000.0 0.9018957834807261 -0.23209652895177235 0.9545174840813893 -0.11529246055641033 -5.9423714850312045e-05 6.891858693816741e-05 -7.060484686459033e-05 8.626675198782665e-05
 0.9545174840813893 -0.11529246055641033 0.9018957834807261 -0.23209652895177235 -5.9423714850312045e-05 6.891858693816741e-05 -7.153231404815798e-05 8.234907641537923e-05
 -5.9423714850312045e-05 6.891858693816741e-05 -5.9423714850312045e-05 6.891858693816741e-05 0.8686485258689056 -0.287045509344783 0.9413165127220761 -0.14429706992223168
 -5.813686231499055e-05 6.819809842046118e-05 -7.153231404815798e-05 8.234907641537923e-05 0.9413165127220761 -0.14429706992223168 0.8686485258689056 -0.287045509344783
322000000.0 0.9016880587141313 -0.23277452473762347 0.9544522813749757 -0.11562801397600143 -5.94299031184944e-05 6.94603429218994e-05 -7.052735832914893e-05 8.694032397395254e-05
 0.9544522813749757 -0.11562801397600143 0.9016880587141313 -0.23277452473762347 -5.94299031184944e-05 6.94603429218994e-05 -7.148495198410946e-05 8.305809071904441e-05
 -5.94299031184944e-05 6.94603429218994e-05 -5.94299031184944e-05 6.94603429218994e-05 0.8683358495347723 -0.28786816401348914 0.9412170240035799 -0.14471584296085666
 -5.810969484390284e-05 6.873530125520348e-05 -7.148495198410946e-05 8.305809071904441e-05 0.9412170240035799 -0.14471584296085666 0.8683358495347723 -0.28786816401348914
323000000.0 0.9014878013340707 -0.23345027736455196 0.9543908409747877 -0.11596243883324105 -5.945698740168186e-05 7.005760989126759e-05 -7.047605891923702e-05 8.768156046888973e-05
 0.9543908409747877 -0.11596243883324105 0.9014878013340707 -0.23345027736455196 -5.945698740168186e-05 7.005760989126759e-05 -7.146130117331828e-05 8.383685737130025e-05
 -5.945698740168186e-05 7.005760989126759e-05 -5.945698740168186e-05 7.005760989126759e-05 0.8680325033139826 -0.28868855168551827 0.9411222496472816 -0.1451333934634276
 -5.810470759278657e-05 6.932692702649958e-05 -7.146130117331828e-05 8.383685737130025e-05 0.9411222496472816 -0.1451333934634276 0.8680325033139826 -0.28868855168551827
324000000.0 0.901295103714291 -0.23412428358698525 0.9543332122603524 -0.11629597506645359 -5.9500582349440876e-05 7.071172848546623e-05 -7.044552833720507e-05 8.849213585690864e-05
 0.9543332122603524 -0.11629597506645359 0.901295103714291 -0.23412428358698525 -5.9500582349440876e-05 7.071172848546623e-05 -7.145583728112322e-05 8.468689793906517e-05
 -5.9500582349440876e-05 7.071172848546623e-05 -5.9500582349440876e-05 7.071172848546623e-05 0.8677385618941011 -0.28950730355888876 0.9410322377549608 -0.14555002706121642
 -5.811757815069118e-05 6.997439547048196e-05 -7.145583728112322e-05 8.468689793906517e-05 0.9410322377549608 -0.14555002706121642 0.8677385618941011 -0.28950730355888876
325000000.0 0.9011100281920669 -0.23479704346207247 0.9542794301515168 -0.11662886447639875 -5.9556259961797474e-05 7.142375476044599e-05 -7.043029319229884e-05 8.937337186134795e-05
 0.9542794301515168 -0.11662886447639875 0.9011100281920669 -0.23479704346207247 -5.9556259961797474e-05 7.142375476044599e-05 -7.146299235667969e-05 8.560937596863014e-05
 -5.9556259961797474e-05 7.142375476044599e-05 -5.9556259961797474e-05 7.142375476044599e-05 0.8674540618950567 -0.29032505240951134 0.9409470180407054 -0.14596605085423886
 -5.8143936391331826e-05 7.067884507045463e-05 -7.146299235667969e-05 8.560937596863014e-05 0.9409470180407054 -0.14596605085423886 0.8674540618950567 -0.29032505240951134
326000000.0 0.9009326071016084 -0.23546905847354252 0.9542295151095654 -0.11696134982366851 -5.9619567448450675e-05 7.219446093792016e-05 -7.042484908768432e-05 9.03262385186543e-05
 0.9542295151095654 -0.11696134982366851 0.9009326071016084 -0.23546905847354252 -5.9619567448450675e-05 7.219446093792016e-05 -7.147717716537544e-05 8.660509858057796e-05
 -5.9619567448450675e-05 7.219446093792016e-05 -5.9619567448450675e-05 7.219446093792016e-05 0.8671790020767953 -0.2911424302362452 0.9408666018893824 -0.14638177227205773
 -5.817938216960599e-05 7.144113346940255e-05 -7.147717716537544e-05 8.660509858057796e-05 0.9408666018893824 -0.14638177227205773 0.8671790020767953 -0.2911424302362452
327000000.0 0.9007628429298506 -0.23614082968548003 0.9541834731973174 -0.11729367393963883 -5.968604473260748e-05 7.302433730030089e-05 -7.042368225937791e-05 9.135135656002468e-05
 0.9541834731973174 -0.11729367393963883 0.9007628429298506 -0.23614082968548003 -5.968604473260748e-05 7.302433730030089e-05 -7.149280302915645e-05 8.767451947856363e-05
 -5.968604473260748e-05 7.302433730030089e-05 -5.968604473260748e-05 7.302433730030089e-05 0.8669133436973421 -0.29196006595476265 0.940790982488314 -0.14679749795561264
 -5.821950268707286e-05 7.226183902282644e-05 -7.149280302915645e-05 8.767451947856363e-05 0.940790982488314 -0.14679749795561264 0.8669133436973421 -0.29196006595476265
328000000.0 0.9006007085893526 -0.23681285593431858 0.9541412961957155 -0.11762607885499997 -5.975124152330939e-05 7.391359517580253e-05 -7.04212906748847e-05 9.24490011307504e-05
 0.9541412961957155 -0.11762607885499997 0.9006007085893526 -0.23681285593431858 -5.975124152330939e-05 7.391359517580253e-05 -7.15043030832533e-05 8.881774329866121e-05
 -5.975124152330939e-05 7.391359517580253e-05 -5.975124152330939e-05 7.391359517580253e-05 0.8666570110138597 -0.29277858315001165 0.9407201350287326 -0.14721353266490428
 -5.8259889450066095e-05 7.314126343807594e-05 -7.15043030832533e-05 8.881774329866121e-05 0.9407201350287326 -0.14721353266490428 0.8666570110138597 -0.29277858315001165
329000000.0 0.900446147802483 -0.23748563206657422 0.9541029617741448 -0.11795880494950822 -5.9810733887635055e-05 7.486217095295964e-05 -7.041220450871228e-05 9.361910677149708e-05
 0.9541029617741448 -0.11795880494950822 0.900446147802483 -0.23748563206657422 -5.9810733887635055e-05 7.486217095295964e-05 -7.150615286743845e-05 9.003453122029824e-05
 -5.9810733887635055e-05 7.486217095295964e-05 -5.9810733887635055e-05 7.486217095295964e-05 0.8664098919186983 -0.2935985978960408 0.940654016973294 -0.14763017821688368
 -5.8296154751462505e-05 7.407943544128052e-05 -7.150615286743845e-05 9.003453122029824e-05 0.940654016973294 -0.14763017821688368 0.8664098919186983 -0.2935985978960408
330000000.0 0.9002990755906106 -0.2381596472290781 0.954068433711506 -0.11829209012624914 -5.9860140261932493e-05 7.58697310597971e-05 -7.039100592156032e-05 9.48612735810964e-05
 0.954068433711506 -0.11829209012624914 0.9002990755906106 -0.2381596472290781 -5.9860140261932493e-05 7.58697310597971e-05 -7.14928901798245e-05 9.132430775534444e-05
 -5.9860140261932493e-05 7.58697310597971e-05 -5.9860140261932493e-05 7.58697310597971e-05 0.8661718387019487 -0.29442071665095354 0.9405925683856818 -0.14804773245740752
 -5.8323947614743134e-05 7.507611540886901e-05 -7.14928901798245e-05 9.132430775534444e-05 0.9405925683856818 -0.14804773245740752 0.8661718387019487 -0.29442071665095354
331000000.0 0.9001593788616596 -0.2388353832176533 0.9540376621648745 -0.11862616901329981 -5.989513684913579e-05 7.693567783983309e-05 -7.035234807973984e-05 9.617477447694172e-05
 0.9540376621648745 -0.11862616901329981 0.9001593788616596 -0.2388353832176533 -5.989513684913579e-05 7.693567783983309e-05 -7.1459134131189e-05 9.268616862865791e-05
 -5.989513684913579e-05 7.693567783983309e-05 -5.989513684913579e-05 7.693567783983309e-05 0.8659426689316585 -0.29524553423370464 0.9405357123181391 -0.14846648827063486
 -5.833896914675428e-05 7.613080089749995e-05 -7.1459134131189e-05 9.268616862865791e-05 0.9405357123181391 -0.14846648827063486 0.8659426689316585 -0.29524553423370464
332000000.0 0.9000269170891373 -0.23951331288938343 0.9540105839824672 -0.11896127219530885 -5.9911472357140716e-05 7.805915625498293e-05 -7.029097336112131e-05 9.755856346675179e-05
 0.9540105839824672 -0.11896127219530885 0.9000269170891373 -0.23951331288938343 -5.9911472357140716e-05 7.805915625498293e-05 -7.139960334773672e-05 9.41188896612991e-05
 -5.9911472357140716e-05 7.805915625498293e-05 -5.9911472357140716e-05 7.805915625498293e-05 0.8657221664426625 -0.2960736318884412 0.9404833552526574 -0.14888673262874083
 -5.8336987253375756e-05 7.72427330039943e-05 -7.139960334773672e-05 9.41188896612991e-05 0.9404833552526574 -0.14888673262874083 0.8657221664426625 -0.2960736318884412
333000000.0 0.8999015230755744 -0.24019389864281074 0.9539871230575429 -0.1192976254771092 -5.990498204104329e-05 7.923906134422452e-05 -7.020173070349794e-05 9.901128484423847e-05
 0.9539871230575429 -0.1192976254771092 0.8999015230755744 -0.24019389864281074 -5.990498204104329e-05 7.923906134422452e-05 -7.13091332799546e-05 9.56209365666405e-05
 -5.990498204104329e-05 7.923906134422452e-05 -5.990498204104329e-05 7.923906134422452e-05 0.8655100824248382 -0.2969055754410626 0.9404353875914673 -0.1493087456843404
 -5.8313850680034256e-05 7.84109034855237e-05 -7.13091332799546e-05 9.56209365666405e-05 0.9404353875914673 -0.1493087456843404 0.8655100824248382 -0.2969055754410626
334000000.0 0.8997830037932506 -0.24087759096962796 0.9539671907198246 -0.11963544918111621 -5.987160101968058e-05 8.047404636653542e-05 -7.007959206057902e-05 0.00010053128322103051
 0.9539671907198246 -0.11963544918111621 0.8997830037932506 -0.24087759096962796 -5.987160101968058e-05 8.047404636653542e-05 -7.118269258466248e-05 9.719047556966615e-05
 -5.987160101968058e-05 8.047404636653542e-05 -5.987160101968058e-05 8.047404636653542e-05 0.8653061366016274 -0.29774191355171986 0.9403916841924713 -0.14973279990754365
 -5.826550234655124e-05 7.963406256982664e-05 -7.118269258466248e-05 9.719047556966615e-05 0.9403916841924713 -0.14973279990754365 0.8653061366016274 -0.29774191355171986
335000000.0 0.8996711412950836 -0.24156482708066196 0.9539506861610418 -0.11997495747989173 -5.980737684427291e-05 8.17625315570682e-05 -6.991966793977657e-05 0.0001021166143079904
 0.9539506861610418 -0.11997495747989173 0.8996711412950836 -0.24156482708066196 -5.980737684427291e-05 8.17625315570682e-05 -7.101539855640188e-05 9.882538476079158e-05
 -5.980737684427291e-05 8.17625315570682e-05 -5.980737684427291e-05 8.17625315570682e-05 0.8651100184897432 -0.298583176066023 0.9403521049452855 -0.15015915926911072
 -5.81879919531113e-05 8.09107273855442e-05 -7.101539855640188e-05 9.882538476079158e-05 0.9403521049452855 -0.15015915926911072 0.8651100184897432 -0.298583176066023
336000000.0 0.8995656936886587 -0.24225602960823203 0.9539374968912187 -0.12031635776490708 -5.970848130396205e-05 8.310271342672046e-05 -6.971722200443373e-05 0.00010376505636073298
 0.9539374968912187 -0.12031635776490708 0.8995656936886587 -0.24225602960823203 -5.970848130396205e-05 8.310271342672046e-05 -7.08025315928479e-05 0.00010052326609745779
 -5.970848130396205e-05 8.310271342672046e-05 -5.970848130396205e-05 8.310271342672046e-05 0.864921388731189 -0.29942987246685393 0.9403164953836491 -0.15058807847074818
 -5.807748784108367e-05 8.223919094382065e-05 -7.08025315928479e-05 0.00010052326609745779 0.9403164953836491 -0.15058807847074818 0.864921388731189 -0.29942987246685393
337000000.0 0.8994663961665289 -0.2429516053862797 0.9539274992224153 -0.1206598500522088 -5.9571221459615406e-05 8.449257453711798e-05 -6.94676847310797e-05 0.00010547412220662415
 0.9539274992224153 -0.1206598500522088 0.8994663961665289 -0.2429516053862797 -5.9571221459615406e-05 8.449257453711798e-05 -7.053954868689848e-05 0.00010228145796946786
 -5.9571221459615406e-05 8.449257453711798e-05 -5.9571221459615406e-05 8.449257453711798e-05 0.8647398804889878 -0.30028249042786187 0.940284687330065 -0.15101980222318315
 -5.793028809897192e-05 8.361753160404065e-05 -7.053954868689848e-05 0.00010228145796946786 0.940284687330065 -0.15101980222318315 0.8647398804889878 -0.30028249042786187
338000000.0 0.8993729620861504 -0.2436519443090419 0.9539205587767395 -0.12100562642538717 -5.9392049903349854e-05 8.592989368548131e-05 -6.916666611961857e-05 0.00010724107177371295
 0.9539205587767395 -0.12100562642538717 0.8993729620861504 -0.2436519443090419 -5.9392049903349854e-05 8.592989368548131e-05 -7.022209594542028e-05 0.0001040970482474458
 -5.9392049903349854e-05 8.592989368548131e-05 -5.9392049903349854e-05 8.592989368548131e-05 0.8645651008983612 -0.30114149446896343 0.9402564995687064 -0.15145456457229012
 -5.774283090983767e-05 8.504362295889471e-05 -7.022209594542028e-05 0.0001040970482474458 0.9402564995687064 -0.15145456457229012 0.8645651008983612 -0.30114149446896343
339000000.0 0.8992850840930877 -0.24435741826845603 0.9539165310155602 -0.12135387051596272 -5.916757424679311e-05 8.74122564368087e-05 -6.880996746102321e-05 0.00010906292504582674
 0.9539165310155602 -0.12135387051596272 0.8992850840930877 -0.24435741826845603 -5.916757424679311e-05 8.74122564368087e-05 -6.984602014127203e-05 0.00010596688773780018
 -5.916757424679311e-05 8.74122564368087e-05 -5.916757424679311e-05 8.74122564368087e-05 0.8643966325655287 -0.3020073247134975 0.9402317385428128 -0.15189258827320615
 -5.751170414210442e-05 8.651514407679887e-05 -6.984602014127203e-05 0.00010596688773780018 0.9402317385428128 -0.15189258827320615 0.8643966325655287 -0.3020073247134975
340000000.0 0.8992024352814608 -0.2450683801699716 0.9539152617870353 -0.12170475702106225 -5.889456584609651e-05 8.893706594421231e-05 -6.839359217306046e-05 0.00011093647537234767
 0.9539152617870353 -0.12170475702106225 0.8992024352814608 -0.2450683801699716 -5.889456584609651e-05 8.893706594421231e-05 -6.940737931113874e-05 0.0001078876039720764
 -5.889456584609651e-05 8.893706594421231e-05 -5.889456584609651e-05 8.893706594421231e-05 0.864234035106729 -0.3028803957460796 0.9402101990729953 -0.15233408421207373
 -5.723365419065639e-05 8.8029590042977e-05 -6.940737931113874e-05 0.0001078876039720764 0.9402101990729953 -0.15233408421207373 0.864234035106729 -0.3028803957460796
341000000.0 0.8991246703859598 -0.245785163025977 0.9539165878892134 -0.12205845125801762 -5.85699677761264e-05 9.050155400198989e-05 -6.791375571980699e-05 0.00011285830306587945
 0.9539165878892134 -0.12205845125801762 0.8991246703859598 -0.245785163025977 -5.85699677761264e-05 9.050155400198989e-05 -6.890245241687812e-05 0.00010985561526347061
 -5.85699677761264e-05 9.050155400198989e-05 -5.85699677761264e-05 9.050155400198989e-05 0.8640768467205923 -0.30376109556967706 0.9401916650931269 -0.15277925087479058
 -5.690559407958626e-05 8.958428274414528e-05 -6.890245241687812e-05 0.00010985561526347061 0.9401916650931269 -0.15277925087479058 0.8640768467205923 -0.30376109556967706
342000000.0 0.8990514270001608 -0.24650807912565945 0.9539203376461771 -0.12241510875534296 -5.8190902070075176e-05 9.21027922800464e-05 -6.736689463520791e-05 0.00011482478922602265
 0.9539203376461771 -0.12241510875534296 0.8990514270001608 -0.24650807912565945 -5.8190902070075176e-05 9.21027922800464e-05 -6.832774809248967e-05 0.0001118671449684663
 -5.8190902070075176e-05 9.21027922800464e-05 -5.8190902070075176e-05 9.21027922800464e-05 0.863924585787507 -0.30464978465999104 0.9401759104007372 -0.15322827386192345
 -5.6524610841793376e-05 9.117638184566454e-05 -6.832774809248967e-05 0.0001118671449684663 0.9401759104007372 -0.15322827386192345 0.863924585787507 -0.30464978465999104
343000000.0 0.8989823268162838 -0.24723741927977744 0.953926331494887 -0.12277487487936707 -5.77546762439463e-05 9.373770369249893e-05 -6.674967467467661e-05 0.00011683212973269688
 0.953926331494887 -0.12277487487936707 0.8989823268162838 -0.24723741927977744 -5.77546762439463e-05 9.373770369249893e-05 -6.768001250246894e-05 0.00011391823589694002
 -5.77546762439463e-05 9.373770369249893e-05 -5.77546762439463e-05 9.373770369249893e-05 0.8637767524901799 -0.30554679511486377 0.9401626994190794 -0.1536813254487599
 -5.608797219389272e-05 9.2802895914148e-05 -6.768001250246894e-05 0.00011391823589694002 0.9401626994190794 -0.1536813254487599 0.8637767524901799 -0.30554679511486377
344000000.0 0.8989169768819674 -0.24797345213855218 0.9539343825805983 -0.12313788449567563 -5.725878912797875e-05 9.540307385765009e-05 -6.605899812175274e-05 0.00011887634935780175
 0.9539343825805983 -0.12313788449567563 0.8989169768819674 -0.24797345213855218 -5.725878912797875e-05 9.540307385765009e-05 -6.695623634021506e-05 0.0001160047648195784
 -5.725878912797875e-05 9.540307385765009e-05 -5.725878912797875e-05 9.540307385765009e-05 0.8636328304501416 -0.30645242989614824 0.9401517879683232 -0.1541385641893274
 -5.559313252755942e-05 9.446069364277679e-05 -6.695623634021506e-05 0.0001160047648195784 0.9401517879683232 -0.1541385641893274 0.8636328304501416 -0.30645242989614824
345000000.0 0.8988549708700762 -0.24871642358067983 0.95394429735892 -0.12350426166440313 -5.6700936029106894e-05 9.709556261091413e-05 -6.529201027913494e-05 0.00012095331594940693
 0.95394429735892 -0.12350426166440313 0.8988549708700762 -0.24871642358067983 -5.6700936029106894e-05 9.709556261091413e-05 -6.61536609973405e-05 0.00011812245702697248
 -5.6700936029106894e-05 9.709556261091413e-05 -5.6700936029106894e-05 9.709556261091413e-05 0.86349228837552 -0.30736696216127796 0.9401429240435875 -0.15460013456309896
 -5.5037738240522954e-05 9.61465151408989e-05 -6.61536609973405e-05 0.00011812245702697248 0.9401429240435875 -0.15460013456309896 0.86349228837552 -0.30736696216127796
346000000.0 0.8987958903579907 -0.24946655617130814 0.953955876202815 -0.1238741193683491 -5.607901325001065e-05 9.881171553667654e-05 -6.444610517501045e-05 0.00012305875464802278
 0.953955876202815 -0.1238741193683491 0.8987958903579907 -0.24946655617130814 -5.607901325001065e-05 9.881171553667654e-05 -6.526978393621056e-05 0.00012026690090021917
 -5.607901325001065e-05 9.881171553667654e-05 -5.607901325001065e-05 9.881171553667654e-05 0.863354581715939 -0.30829063468163087 0.9401358485977823 -0.15506616666303474
 -5.441963243195011e-05 9.785698325381697e-05 -6.526978393621056e-05 0.00012026690090021917 0.9401358485977823 -0.15506616666303474 0.863354581715939 -0.30829063468163087
347000000.0 0.89873930611326 -0.250224048686735 0.9539689140130374 -0.12424755927283662 -5.5391121991230904e-05 0.00010054797548938636 -6.351893051655741e-05 0.0001251882620997605
 0.9539689140130374 -0.12424755927283662 0.89873930611326 -0.250224048686735 -5.5391121991230904e-05 0.00010054797548938636 -6.430236329886068e-05 0.00012243356245820477
 -5.5391121991230904e-05 0.00010054797548938636 -5.5391121991230904e-05 0.00010054797548938636 0.8632191543209571 -0.3092236593447344 0.9401302963275137 -0.1555367759235686
 -5.3736858987944083e-05 9.95886148829343e-05 -6.430236329886068e-05 0.00012243356245820477 0.9401302963275137 -0.1555367759235686 0.8632191543209571 -0.3092236593447344
348000000.0 0.8986847793829101 -0.2509890757035378 0.9539832008307014 -0.12462467151621458 -5.463557166323137e-05 0.00010230069407838149 -6.250839192282227e-05 0.0001273373206362775
 0.9539832008307014 -0.12462467151621458 0.8986847793829101 -0.2509890757035378 -5.463557166323137e-05 0.00010230069407838149 -6.324942178563165e-05 0.00012461779985189366
 -5.463557166323137e-05 0.00010230069407838149 -5.463557166323137e-05 0.00010230069407838149 0.86308544009894 -0.3101662167373426 0.9401259964605233 -0.15601206288714287
 -5.298766608336397e-05 0.00010133783228058528 -6.324942178563165e-05 0.00012461779985189366 0.9401259964605233 -0.15601206288714287 0.86308544009894 -0.3101662167373426
349000000.0 0.8986318631841154 -0.25176178724986764 0.9539985224508825 -0.12500553452990731 -5.381088263521453e-05 0.00010406614309496835 -6.14126564689267e-05 0.00012950131239625756
 0.9539985224508825 -0.12500553452990731 0.8986318631841154 -0.25176178724986764 -5.381088263521453e-05 0.00010406614309496835 -6.21092498364786e-05 0.0001268148777808474
 -5.381088263521453e-05 0.00010406614309496835 -5.381088263521453e-05 0.00010406614309496835 0.8629528646737901 -0.3111184558065044 0.9401226735434051 -0.1564921130079213
 -5.2170509126171184e-05 0.0001031009742978637 -6.21092498364786e-05 0.0001268148777808474 0.9401226735434051 -0.1564921130079213 0.8629528646737901 -0.3111184558065044
350000000.0 0.8985801035942901 -0.2525423085166864 0.9540146610363247 -0.12539021488694205 -5.2915788446987336e-05 0.00010584052586408832 -6.023015557277779e-05 0.00013167553336774942
 0.9540146610363247 -0.12539021488694205 0.8985801035942901 -0.2525423085166864 -5.2915788446987336e-05 0.00010584052586408832 -6.088040814699545e-05 0.0001290199818117999
 -5.2915788446987336e-05 0.00010584052586408832 -5.2915788446987336e-05 0.00010584052586408832 0.8628208470373542 -0.31208049359583556 0.9401200482285276 -0.1569769964913552
 -5.1284053170065605e-05 0.00010487430756755179 -6.088040814699545e-05 0.0001290199818117999 0.9401200482285276 -0.1569769964913552 0.8628208470373542 -0.31208049359583556
351000000.0 0.8985290410390295 -0.25333073962683594 0.9540313957304983 -0.1257787671779262 -5.1949237509254526e-05 0.00010761998850644708 -5.895958725419375e-05 0.00013385520733492906
 0.9540313957304983 -0.1257787671779262 0.8985290410390295 -0.25333073962683594 -5.1949237509254526e-05 0.00010761998850644708 -5.9561729549806594e-05 0.00013122823258336435
 -5.1949237509254526e-05 0.00010761998850644708 -5.1949237509254526e-05 0.00010761998850644708 0.8626888011957804 -0.31305241505439496 0.9401178380593226 -0.15746676816835933
 -5.0327174820332006e-05 0.00010665403760778184 -5.9561729549806594e-05 0.00013122823258336435 0.9401178380593226 -0.15746676816835933 0.8626888011957804 -0.31305241505439496
352000000.0 0.8984782115766301 -0.25412715545996384 0.954048503269413 -0.12617123391352303 -5.091039431644352e-05 0.00010940063110025283 -5.759991779466695e-05 0.00013603549971673095
 0.954048503269413 -0.12617123391352303 0.8984782115766301 -0.25412715545996384 -5.091039431644352e-05 0.00010940063110025283 -5.815232029015772e-05 0.00013343469988482177
 -5.091039431644352e-05 0.00010940063110025283 -5.091039431644352e-05 0.00010940063110025283 0.8625561378084331 -0.3140342729157654 0.9401157582532587 -0.15796146740294703
 -4.9298963656611554e-05 0.00010843631983533055 -5.815232029015772e-05 0.00013343469988482177 0.9401157582532587 -0.15796146740294703 0.8625561378084331 -0.3140342729157654
353000000.0 0.8984271481781999 -0.2549316055315015 0.9540657585917218 -0.1265676454525433 -4.979864019456811e-05 0.00011117851873465248 -5.6150382823914316e-05 0.0001382115312882723
 0.9540657585917218 -0.1265676454525433 0.8984271481781999 -0.2549316055315015 -4.979864019456811e-05 0.00011117851873465248 -5.6651560722354565e-05 0.0001356344166003952
 -4.979864019456811e-05 0.00011117851873465248 -4.979864019456811e-05 0.00011117851873465248 0.8624222658183063 -0.3150260876451905 0.9401135224819975 -0.15846111803229374
 -4.819872319478267e-05 0.00011021727048039448 -5.6651560722354565e-05 0.0001356344166003952 0.9401135224819975 -0.15846111803229374 0.8624222658183063 -0.3150260876451905
354000000.0 0.8983753820026332 -0.2557441139240991 0.9540829354467829 -0.1269680199548782 -4.861357360477606e-05 0.00011294969244956181 -5.4610487856981294e-05 0.00014037839177904172
 0.9540829354467829 -0.1269680199548782 0.8983753820026332 -0.2557441139240991 -4.861357360477606e-05 0.00011294969244956181 -5.505910545119804e-05 0.00013782239251342466
 -4.861357360477606e-05 0.00011294969244956181 -4.861357360477606e-05 0.00011294969244956181 0.8622865940731375 -0.3160278474529044 0.9401108436483565 -0.15896572833832978
 -4.702597140833647e-05 0.00011199297739731724 -5.505910545119804e-05 0.00013782239251342466 0.9401108436483565 -0.15896572833832978 0.8622865940731375 -0.3160278474529044
355000000.0 0.8983224436658924 -0.25656467927013443 0.9540998070004352 -0.12737236335859844 -4.735501002112328e-05 0.00011471018005884106 -5.298000830299967e-05 0.00014253115334443404
 0.9540998070004352 -0.12737236335859844 0.8983224436658924 -0.25656467927013443 -4.735501002112328e-05 0.00011471018005884106 -5.3374882939806264e-05 0.00013999362796741498
 -4.735501002112328e-05 0.00011471018005884106 -4.735501002112328e-05 0.00011471018005884106 0.8621485329366386 -0.31703950837208167 0.9401074346598062 -0.15947529105010352
 -4.578044082758638e-05 0.00011375951076801556 -5.3374882939806264e-05 0.00013999362796741498 0.9401074346598062 -0.15947529105010352 0.8621485329366386 -0.31703950837208167
356000000.0 0.8982678645042464 -0.25739327478417345 0.9541161464383371 -0.12778066938067076 -4.6022981398841405e-05 0.00011645600685564516 -5.125898896383721e-05 0.00014466488390935074
 0.9541161464383371 -0.12778066938067076 0.8982678645042464 -0.25739327478417345 -4.6022981398841405e-05 0.00011645600685564516 -5.159909460225778e-05 0.00014214312738300723
 -4.6022981398841405e-05 0.00011645600685564516 -4.6022981398841405e-05 0.00011645600685564516 0.8620074958894239 -0.31806099440017194 0.9401030091983338 -0.15998978337632072
 -4.446207823282922e-05 0.00011551293369676029 -5.159909460225778e-05 0.00014214312738300723 0.9401030091983338 -0.15998978337632072 0.8620074958894239 -0.31806099440017194
357000000.0 0.898211177831196 -0.258229848344503 0.9541317275667783 -0.12819291954085962 -4.4617735246935665e-05 0.00011818320620028553 -4.944774303783988e-05 0.0001467746603842617
 0.9541317275667783 -0.12819291954085962 0.898211177831196 -0.258229848344503 -4.4617735246935665e-05 0.00011818320620028553 -4.973221339637954e-05 0.00014426591263152458
 -4.4617735246935665e-05 0.00011818320620028553 -4.4617735246935665e-05 0.00011818320620028553 0.8618629011193267 -0.31909219770270564 0.9400972824865489 -0.16050916706761836
 -4.307104395518862e-05 0.00011724931269651129 -4.973221339637954e-05 0.00014426591263152458 0.9400972824865489 -0.16050916706761836 0.8618629011193267 -0.31909219770270564
358000000.0 0.8981519201879258 -0.2590743226231358 0.9541463254109062 -0.1286090832085201 -4.3139733316434114e-05 0.00011988782999205405 -4.754685064073968e-05 0.0001488555817553079
 0.9541463254109062 -0.1286090832085201 0.8981519201879258 -0.2590743226231358 -4.3139733316434114e-05 0.00011988782999205405 -4.7774981928812146e-05 0.00014635703626684584
 -4.3139733316434114e-05 0.00011988782999205405 -4.3139733316434114e-05 0.00011988782999205405 0.8617141731008315 -0.3201329788790039 0.940089972049947 -0.16103338850830445
 -4.160771079639758e-05 0.00011896472806815993 -4.7774981928812146e-05 0.00014635703626684584 0.940089972049947 -0.16103338850830445 0.8617141731008315 -0.3201329788790039
359000000.0 0.8980896325871351 -0.25992659526394835 0.9541597168103418 -0.1290291176721128 -4.158964991302898e-05 0.00012156595902719638 -4.555715685260997e-05 0.00015090278205074403
 0.9541597168103418 -0.1290291176721128 0.8980896325871351 -0.25992659526394835 -4.158964991302898e-05 0.00012156595902719638 -4.572841008124447e-05 0.00014841159461799193
 -4.158964991302898e-05 0.00012156595902719638 -4.158964991302898e-05 0.00012156595902719638 0.8615607441633693 -0.3211831672895577 0.9400807984752538 -0.1615623788374563
 -4.007266257622491e-05 0.00012065528417481609 -4.572841008124447e-05 0.00014841159461799193 0.9400807984752538 -0.1615623788374563 0.8615607441633693 -0.3211831672895577
360000000.0 0.898023861750115 -0.2607865391088989 0.9541716810121592 -0.12945296823141467 -3.996836984025667e-05 0.00012321371324557306 -4.347976929656274e-05 0.00015291144318625683
 0.9541716810121592 -0.12945296823141467 0.898023861750115 -0.2607865391088989 -3.996836984025667e-05 0.00012321371324557306 -4.359377216348621e-05 0.00015042474074494964
 -3.996836984025667e-05 0.00012321371324557306 -3.996836984025667e-05 0.00012321371324557306 0.8614020560481499 -0.3222425614451813 0.9400694861647426 -0.16209605409943945
 -3.846669231368312e-05 0.00012231711961367925 -4.359377216348621e-05 0.00015042474074494964 0.9400694861647426 -0.16209605409943945 0.8614020560481499 -0.3222425614451813
361000000.0 0.8979541613368535 -0.26165400247251736 0.9541820002611665 -0.12988056831251799 -3.827698597680424e-05 0.00012482726186850986 -4.1316055251748633e-05 0.0001548768076914589
 0.9541820002611665 -0.12988056831251799 0.8979541613368535 -0.26165400247251736 -3.827698597680424e-05 0.00012482726186850986 -4.137260359589523e-05 0.0001523916972599239
 -3.827698597680424e-05 0.00012482726186850986 -3.827698597680424e-05 0.00012482726186850986 0.8612375614530997 -0.323310929458356 0.9400557640863938 -0.1626343154240657
 -3.6790800045611e-05 0.00012394641728804645 -4.137260359589523e-05 0.0001523916972599239 0.9400557640863938 -0.1626343154240657 0.8612375614530997 -0.323310929458356
362000000.0 0.8978800931689073 -0.2625288094651362 0.9541904603874102 -0.13031183960584808 -3.651679648902553e-05 0.0001264028334299503 -3.906763830017677e-05 0.00015679419131917782
 0.9541904603874102 -0.13031183960584808 0.8978800931689073 -0.2625288094651362 -3.651679648902553e-05 0.0001264028334299503 -3.906669712062652e-05 0.0001543077690154262
 -3.651679648902553e-05 0.0001264028334299503 -3.651679648902553e-05 0.0001264028334299503 0.8610667255653184 -0.32438800955748637 0.9400393665196656 -0.16317704923676382
 -3.5046190283725804e-05 0.00012553941438168048 -3.906669712062652e-05 0.0001543077690154262 0.9400393665196656 -0.16317704923676382 0.8610667255653184 -0.32438800955748637
363000000.0 0.8978012284445905 -0.2634107603655527 0.9541968513907356 -0.13074669222754268 -3.468930167735858e-05 0.00012793672570225517 -3.673639450398356e-05 0.00015865899553802387
 0.9541968513907356 -0.13074669222754268 0.8978012284445905 -0.2634107603655527 -3.468930167735858e-05 0.00012793672570225517 -3.667809853829245e-05 0.0001561683556593697
 -3.468930167735858e-05 0.00012793672570225517 -3.468930167735858e-05 0.00012793672570225517 0.8608890275802537 -0.32547351066506197 0.9400200337965757 -0.16372412749927276
 -3.323426910884999e-05 0.00012709241223704597 -3.667809853829245e-05 0.0001561683556593697 0.9400200337965757 -0.16372412749927276 0.8608890275802537 -0.32547351066506197
364000000.0 0.8977171489459123 -0.26429963204405515 0.9542009680221882 -0.1311850249046523 -3.279620045308255e-05 0.00012942531551690244 -3.4324448107077905e-05 0.0001604667199071771
 0.9542009680221882 -0.1311850249046523 0.8977171489459123 -0.26429963204405515 -3.279620045308255e-05 0.00012942531551690244 -3.420910196394953e-05 0.0001579689640556964
 -3.279620045308255e-05 0.00012942531551690244 -3.279620045308255e-05 0.00012942531551690244 0.8607039622065409 -0.32656711304097674 0.939997513037669 -0.1642754079815071
 -3.13566408987516e-05 0.0001286017861378891 -3.420910196394953e-05 0.0001579689640556964 0.939997513037669 -0.1642754079815071 0.8607039622065409 -0.32656711304097674
365000000.0 0.8976274482364437 -0.2651951784369213 0.9542026103619133 -0.13162672518471774 -3.083938643977781e-05 0.00013086506847889945 -3.1834166752630944e-05 0.00016221297433037017
 0.9542026103619133 -0.13162672518471774 0.8976274482364437 -0.2651951784369213 -3.083938643977781e-05 0.00013086506847889945 -3.166224459390845e-05 0.000159705220566997
 -3.083938643977781e-05 0.00013086506847889945 -3.083938643977781e-05 0.00013086506847889945 0.8605110411551573 -0.3276684689924492 0.939971558882283 -0.16483073456533778
 -2.9415104683946372e-05 0.00013006399499525096 -3.166224459390845e-05 0.000159705220566997 0.939971558882283 -0.16483073456533778 0.8605110411551573 -0.3276684689924492
366000000.0 0.8975317328490842 -0.26609713107368954 0.9542015843931173 -0.13207166967037193 -2.8820943691991835e-05 0.00013225254857199506 -2.926815620570068e-05 0.00016389349118373173
 0.9542015843931173 -0.13207166967037193 0.8975317328490842 -0.26609713107368954 -2.8820943691991835e-05 0.00013225254857199506 -2.9040300972742195e-05 0.00016137288319318104
 -2.8820943691991835e-05 0.00013225254857199506 -2.8820943691991835e-05 0.00013225254857199506 0.8603097946111995 -0.3287772036521814 0.9399419342124122 -0.1653899375811486
 -2.741165012391943e-05 0.00013147559093433118 -2.9040300972742195e-05 0.00016137288319318104 0.9399419342124122 -0.1653899375811486 0.8603097946111995 -0.3287772036521814
367000000.0 0.8974296234624068 -0.2670051996586276 0.9541977025715164 -0.13251972427968603 -2.6743142021989277e-05 0.00013358442764975297 -2.6629254568412982e-05 0.00016550413730947734
 0.9541977025715164 -0.13251972427968603 0.8974296234624068 -0.2670051996586276 -2.6743142021989277e-05 0.00013358442764975297 -2.6346276748073505e-05 0.0001629678535574838
 -2.6743142021989277e-05 0.00013358442764975297 -2.6743142021989277e-05 0.00013358442764975297 0.8600997726862296 -0.32989291582650426 0.93990841086924 -0.16595283417808177
 -2.534845309456758e-05 0.00013283322877764907 -2.6346276748073505e-05 0.0001629678535574838 0.93990841086924 -0.16595283417808177 0.8600997726862296 -0.32989291582650426
368000000.0 0.8973207560639653 -0.2679190727079362 0.9541907843895546 -0.13297074453303515 -2.4608431924131524e-05 0.00013485749480526891 -2.392052597363554e-05 0.00016704092586445712
 0.9541907843895546 -0.13297074453303515 0.8973207560639653 -0.2679190727079362 -2.4608431924131524e-05 0.00013485749480526891 -2.3583401899318524e-05 0.0001644861887280413
 -2.4608431924131524e-05 0.00013485749480526891 -2.4608431924131524e-05 0.00013485749480526891 0.8598805468487235 -0.3310151789153488 0.9398707703612627 -0.16651922872895225
 -2.3227870876282184e-05 0.00013413367541771358 -2.3583401899318524e-05 0.0001644861887280413 0.9398707703612627 -0.16651922872895225 0.8598805468487235 -0.3310151789153488
369000000.0 0.8972047830986235 -0.26883841824428667 0.9541806569345197 -0.13342457586729994 -2.2419439085388203e-05 0.00013606866560981082 -2.1145253741967184e-05 0.0001685000280093196
 0.9541806569345197 -0.13342457586729994 0.8972047830986235 -0.26883841824428667 -2.2419439085388203e-05 0.00013606866560981082 -2.0755123425556278e-05 0.00016592411285993954
 -2.2419439085388203e-05 0.00013606866560981082 -2.2419439085388203e-05 0.00013606866560981082 0.8596517113297334 -0.33214354190589473 0.9398288045626754 -0.16708891327082281
 -2.105243693100148e-05 0.00013537381906995693 -2.0755123425556278e-05 0.00016592411285993954 0.9398288045626754 -0.16708891327082281 0.8596517113297334 -0.33214354190589473
370000000.0 0.897081374599616 -0.2697628845503145 0.9541671554395156 -0.13388105397823666 -2.0178958469782795e-05 0.00013721499120795104 -1.830693298619934e-05 0.0001698777844205653
 0.9541671554395156 -0.13388105397823666 0.897081374599616 -0.2697628845503145 -2.0178958469782795e-05 0.00013721499120795104 -1.786509747713476e-05 0.00016727802863910168
 -2.0178958469782795e-05 0.00013721499120795104 -2.0178958469782795e-05 0.00013721499120795104 0.8594128845004325 -0.33327753044172886 0.9397823164005221 -0.16766166798224416
 -1.8824855255798485e-05 0.00013655067839401163 -1.786509747713476e-05 0.00016727802863910168 0.9397823164005221 -0.16766166798224416 0.8594128845004325 -0.33327753044172886
371000000.0 0.8969502192996923 -0.27069210098267027 0.9541501238260708 -0.13434000519184605 -1.788994796422538e-05 0.00013829366725389336 -1.5409262647189792e-05 0.00017117071660409253
 0.9541501238260708 -0.13434000519184605 0.8969502192996923 -0.27069210098267027 -1.788994796422538e-05 0.00013829366725389336 -1.49171809155354e-05 0.00016854452850565197
 -1.788994796422538e-05 0.00013829366725389336 -1.788994796422538e-05 0.00013829366725389336 0.8591637102177371 -0.3344166479692446 0.9397311205288399 -0.16823726169812145
 -1.6547994300156725e-05 0.00013766141146857852 -1.49171809155354e-05 0.00016854452850565197 0.9397311205288399 -0.16823726169812145 0.8591637102177371 -0.3344166479692446
372000000.0 0.8968110257193145 -0.2716256788481566 0.9541294152369953 -0.13480124686554676 -1.555552157322612e-05 0.00013930204267070004 -1.2456136945370553e-05 0.00017237553798503033
 0.9541294152369953 -0.13480124686554676 0.8968110257193145 -0.2716256788481566 -1.555552157322612e-05 0.00013930204267070004 -1.1915422286435722e-05 0.00016972040563055816
 -1.555552157322612e-05 0.00013930204267070004 -1.555552157322612e-05 0.00013930204267070004 0.858903859133747 -0.3355603769628647 0.9396750439878189 -0.16881545246311824
 -1.422488043405171e-05 0.00013870332460215736 -1.1915422286435722e-05 0.00016972040563055816 0.9396750439878189 -0.16881545246311824 0.858903859133747 -0.3355603769628647
373000000.0 0.8966635232285133 -0.27256321234336567 0.9541048925578942 -0.13526458781990833 -1.3178942150411884e-05 0.0001402376282110431 -9.451636232893995e-06 0.00017348916474475287
 0.9541048925578942 -0.13526458781990833 0.8966635232285133 -0.27256321234336567 -1.3178942150411884e-05 0.0001402376282110431 -8.864052191834622e-06 0.00017080266461543282
 -1.3178942150411884e-05 0.0001402376282110431 -1.3178942150411884e-05 0.0001402376282110431 0.8586330299642724 -0.33670818023044685 0.9396139268457745 -0.1693959881244106
 -1.1858690954305863e-05 0.00013967388095884698 -8.864052191834622e-06 0.00017080266461543282 0.9396139268457745 -0.1693959881244106 0.8586330299642724 -0.33670818023044685
374000000.0 0.8965074630786096 -0.27350427955905016 0.9540764289255691 -0.1357298288016244 -1.0763613655617588e-05 0.00014109810479497878 -6.4000172327349726e-06 0.00017450872637204788
 0.9540764289255691 -0.1357298288016244 0.8965074630786096 -0.27350427955905016 -1.0763613655617588e-05 0.00014109810479497878 -5.76747304857362e-06 0.00017178853188145056
 -1.0763613655617588e-05 0.00014109810479497878 -1.0763613655617588e-05 0.00014109810479497878 0.858350950711249 -0.33785950229994655 0.9395476228214668 -0.16997860696448597
 -9.452746617451612e-06 0.00014057070897530364 -5.76747304857362e-06 0.00017178853188145056 0.9395476228214668 -0.16997860696448597 0.858350950711249 -0.33785950229994655
375000000.0 0.8963426193996444 -0.2744484435502432 0.9540439082213579 -0.13619676297830557 -8.31307292760856e-06 0.0001418813315971221 -3.305702652933753e-06 0.0001754315758915065
 0.9540439082213579 -0.13619676297830557 0.8963426193996444 -0.2744484435502432 -8.31307292760856e-06 0.0001418813315971221 -2.6302482226119166e-06 0.0001726754657094507
 -8.31307292760856e-06 0.0001418813315971221 -8.31307292760856e-06 0.0001418813315971221 0.8580573798334048 -0.3390137708880563 0.9394759998841068 -0.170563038374518
 -7.010503688529102e-06 0.0001413916105418203 -2.6302482226119166e-06 0.0001726754657094507 0.9394759998841068 -0.170563038374518 0.8580573798334048 -0.3390137708880563
376000000.0 0.8961687901589952 -0.27539525347286253 0.9540072255472652 -0.13666517646554738 -5.830980964195097e-06 0.0001425853538525211 -1.7327016656426797e-07 0.00017625529972839434
 0.9540072255472652 -0.13666517646554738 0.8961687901589952 -0.27539525347286253 -5.830980964195097e-06 0.0001425853538525211 5.429094690233298e-07 0.0001734611658895229
 -5.830980964195097e-06 0.0001425853538525211 -5.830980964195097e-06 0.0001425853538525211 0.8577521073591208 -0.3401703984511258 0.9393989408281536 -0.1711490035686663
 -4.535545496863345e-06 0.00014213456891739814 5.429094690233298e-07 0.0001734611658895229 0.9393989408281536 -0.1711490035686663 0.8577521073591208 -0.3401703984511258
377000000.0 0.8959857980763034 -0.2763442457871927 0.9539662876825858 -0.1371348488865729 -3.321113703662916e-06 0.00014320841034756433 2.9925592490159164e-06 0.00017697772716560462
 0.9539662876825858 -0.1371348488865729 0.8959857980763034 -0.2763442457871927 -3.321113703662916e-06 0.00014320841034756433 3.747149893553018e-06 0.00017414358293477248
 -3.321113703662916e-06 0.00014320841034756433 -3.321113703662916e-06 0.00014320841034756433 0.8574349559350222 -0.3413287838181663 0.9393163438198016 -0.1717362163394189
 -2.0315734919303296e-06 0.00014279775634569103 3.747149893553018e-06 0.00017414358293477248 0.9393163438198016 -0.1717362163394189 0.8574349559350222 -0.3413287838181663
378000000.0 0.8957934914895264 -0.2772949455282677 0.9539210135185411 -0.1376055539645743 -7.873523040273145e-07 0.00014374894055942892 6.186933616575486e-06 0.00017759693934485857
 0.9539210135185411 -0.1376055539645743 0.8957934914895264 -0.2772949455282677 -7.873523040273145e-07 0.00014374894055942892 6.977498376302298e-06 0.00017472092681060044
 -7.873523040273145e-07 0.00014374894055942892 -7.873523040273145e-07 0.00014374894055942892 0.8571057818035063 -0.34248831390520557 0.9392281229118845 -0.17232438385384685
 4.976022050869195e-07 0.00014337954133583763 6.977498376302298e-06 0.00017472092681060044 0.9392281229118845 -0.17232438385384685 0.8571057818035063 -0.34248831390520557
379000000.0 0.8955917451666178 -0.27824686764271656 0.9538713344682985 -0.13807706014766866 1.766327080349414e-06 0.0001442055914049589 9.404882905962325e-06 0.00017811127776116487
 0.9538713344682985 -0.13807706014766866 0.8955917451666178 -0.27824686764271656 1.766327080349414e-06 0.0001442055914049589 1.0228869110150834e-05 0.00017519167512778598
 1.766327080349414e-06 0.0001442055914049589 1.766327080349414e-06 0.0001442055914049589 0.8567644757020871 -0.343648365509635 0.9391342085237406 -0.17291320749034766
 3.0480727555136146e-06 0.00014387849556953493 1.0228869110150834e-05 0.00017519167512778598 0.9391342085237406 -0.17291320749034766 0.8567644757020871 -0.343648365509635
380000000.0 0.8953804610571139 -0.27919951839116414 0.9538171948496423 -0.13854913126615825 4.335864021799682e-06 0.00014457722355751382 1.2641332617926066e-05 0.00017851935219675828
 0.9538171948496423 -0.13854913126615825 0.8953804610571139 -0.27919951839116414 4.335864021799682e-06 0.00014457722355751382 1.3496079192914251e-05 0.00017555458074498272
 4.335864021799682e-06 0.00014457722355751382 4.335864021799682e-06 0.00014457722355751382 0.8564109636772103 -0.3448083071825194 0.939034547882454 -0.17350238371514423
 5.615841061287137e-06 0.00014429340039328632 1.3496079192914251e-05 0.00017555458074498272 0.939034547882454 -0.17350238371514423 0.8564109636772103 -0.3448083071825194
381000000.0 0.8951595689776688 -0.2801523968147294 0.9537585522374064 -0.13902152722152922 6.9171250352310025e-06 0.00014486291728827469 1.5891117994077925e-05 0.00017882004803836555
 0.9537585522374064 -0.13902152722152922 0.8951595689776688 -0.2801523968147294 6.9171250352310025e-06 0.00014486291728827469 1.677386327978824e-05 0.0001758086787240162
 6.9171250352310025e-06 0.00014486291728827469 6.9171250352310025e-06 0.00014486291728827469 0.8560452078049964 -0.3459675011761136 0.93892910542177 -0.17409160499745258
 8.196832721310242e-06 0.0001446232528526397 1.677386327978824e-05 0.0001758086787240162 0.93892910542177 -0.17409160499745258 0.8560452078049964 -0.3459675011761136
382000000.0 0.8949290272254317 -0.2811049962635872 0.9536953777827267 -0.13949400470635012 9.505915275807981e-06 0.00014506197778682388 1.914899883675186e-05 0.00017901253291976882
 0.9536953777827267 -0.13949400470635012 0.8949290272254317 -0.2811049962635872 9.505915275807981e-06 0.00014506197778682388 2.0056888832339522e-05 0.00017595329257965664
 9.505915275807981e-06 0.00014506197778682388 9.505915275807981e-06 0.00014506197778682388 0.8556672068112621 -0.3471253054630569 0.9388178631349187 -0.174680560761873
 1.0786907476284865e-05 0.00014486727122346534 2.0056888832339522e-05 0.00017595329257965664 0.9388178631349187 -0.174680560761873 0.8556672068112621 -0.3471253054630569
383000000.0 0.8946888231130775 -0.2820568059849411 0.953627656496107 -0.13996631795393497 1.2097990702839538e-05 0.00014517393991455546 2.240967491660923e-05 0.0001790962626303128
 0.953627656496107 -0.13996631795393497 0.8946888231130775 -0.2820568059849411 1.2097990702839538e-05 0.00014517393991455546 2.33397719394837e-05 0.000175988039764404
 1.2097990702839538e-05 0.00014517393991455546 1.2097990702839538e-05 0.00014517393991455546 0.8552769965831554 -0.3482810758228993 0.9387008208775195 -0.17526893837615792
 1.3381871127773138e-05 0.0001450248999939698 2.33397719394837e-05 0.000175988039764404 0.9387008208775195 -0.17526893837615792 0.8552769965831554 -0.3482810758228993
384000000.0 0.8944389734192314 -0.2830073127670958 0.953555387491231 -0.140438219516324 1.4689070689416456e-05 0.00014519857234368422 2.5667801939563793e-05 0.00017907098622929778
 0.953555387491231 -0.140438219516324 0.8944389734192314 -0.2830073127670958 1.4689070689416456e-05 0.00014519857234368422 2.6617093679511813e-05 0.00017591283632832654
 1.4689070689416456e-05 0.00014519857234368422 1.4689070689416456e-05 0.00014519857234368422 0.8548746505647798 -0.3494341679907649 0.9385779966167656 -0.1758564241721065
 1.5977487912445455e-05 0.000145095814250237 2.6617093679511813e-05 0.00017591283632832654 0.9385779966167656 -0.1758564241721065 0.8548746505647798 -0.3494341679907649
385000000.0 0.8941795247481034 -0.28395600263564846 0.9534785841865114 -0.14090946106881125 1.7274851052232363e-05 0.00014513588103435524 2.8918008038045808e-05 0.00017893675030617443
 0.9534785841865114 -0.14090946106881125 0.8941795247481034 -0.28395600263564846 1.7274851052232363e-05 0.00014513588103435524 2.9883416985577156e-05 0.00017572790069419304
 1.7274851052232363e-05 0.00014513588103435524 1.7274851052232363e-05 0.00014513588103435524 0.854460280029355 -0.35058393986209235 0.938449426623125 -0.1764427044969115
 1.856949330742266e-05 0.00014507992341770192 2.9883416985577156e-05 0.00017572790069419304 0.938449426623125 -0.1764427044969115 0.854460280029355 -0.35058393986209235
386000000.0 0.893910553792221 -0.28490236259710033 0.9533972744613394 -0.141379794238907 1.985101747069748e-05 0.0001449861120026392 3.215491074483167e-05 0.00017869390232715254
 0.9533972744613394 -0.141379794238907 0.893910553792221 -0.28490236259710033 1.985101747069748e-05 0.0001449861120026392 3.313330397019529e-05 0.0001754337564890809
 1.985101747069748e-05 0.0001449861120026392 1.985101747069748e-05 0.0001449861120026392 0.8540340342207023 -0.35172975374650217 0.9383151656008827 -0.1770274667918481
 2.1153607237343205e-05 0.00014497737431111123 3.313330397019529e-05 0.0001754337564890809 0.9383151656008827 -0.1770274667918481 0.8540340342207023 -0.35172975374650217
387000000.0 0.8936321674923594 -0.28584588242450115 0.9533115007641287 -0.14184897145728143 2.241325925900153e-05 0.00014474975333309456 3.53731344007539e-05 0.00017834309301030605
 0.9533115007641287 -0.14184897145728143 0.8936321674923594 -0.28584588242450115 2.241325925900153e-05 0.00014474975333309456 3.6361333657349016e-05 0.00017503123437537075
 2.241325925900153e-05 0.00014474975333309456 2.241325925900153e-05 0.00014474975333309456 0.8535961003572073 -0.35287097866296063 0.9381752867540019 -0.17761040069476264
 2.3725547648370877e-05 0.00014478855344627467 3.6361333657349016e-05 0.00017503123437537075 0.9381752867540019 -0.17761040069476264 0.8535961003572073 -0.35287097866296063
388000000.0 0.8933445030890383 -0.2867860564790013 0.9532213201693317 -0.14231674682788756 2.495728344924498e-05 0.00014442753639109095 3.856732794062387e-05 0.00017788527767353943
 0.9532213201693317 -0.14231674682788756 0.8933445030890383 -0.2867860564790013 2.495728344924498e-05 0.00014442753639109095 3.95621200637912e-05 0.00017452147282659357
 2.495728344924498e-05 0.00014442753639109095 2.495728344924498e-05 0.00014442753639109095 0.8531467034918698 -0.3540069926675315 0.9380298817839788 -0.1781911991623805
 2.6281044408841104e-05 0.00014451408856827695 3.95621200637912e-05 0.00017452147282659357 0.9380298817839788 -0.1781911991623805 0.8531467034918698 -0.3540069926675315
389000000.0 0.8930477280602954 -0.2877223855604986 0.9531268043807658 -0.14278287701411907 2.7478829138223503e-05 0.00014402043619226508 4.173218299476986e-05 0.00017732171650288706
 0.9531268043807658 -0.14278287701411907 0.8930477280602954 -0.2877223855604986 2.7478829138223503e-05 0.00014402043619226508 4.273033056421685e-05 0.00017390591779698562
 2.7478829138223503e-05 0.00014402043619226508 2.7478829138223503e-05 0.00014402043619226508 0.85268610622263 -0.3551371852041613 0.9378790608166059 -0.17876955960802907
 2.8815853490716044e-05 0.00014415484935283417 4.273033056421685e-05 0.00017390591779698562 0.9378790608166059 -0.17876955960802907 0.85268610622263 -0.3551371852041613
390000000.0 0.8927420399409121 -0.2886543787798655 0.9530280396788084 -0.14324712213751184 2.9973682044982008e-05 0.00014352967088932675 4.486245223679065e-05 0.00017665397369258636
 0.9530280396788084 -0.14324712213751184 0.8927420399409121 -0.2886543787798655 2.9973682044982008e-05 0.00014352967088932675 4.586070446821567e-05 0.00017318632123786447
 2.9973682044982008e-05 0.00014352967088932675 2.9973682044982008e-05 0.00014352967088932675 0.852214608247835 -0.35626095946812136 0.937722952254869 -0.17934518504995745
 3.132577138053899e-05 0.00014371194724016283 4.586070446821567e-05 0.00017318632123786447 0.937722952254869 -0.17934518504995745 0.852214608247835 -0.35626095946812136
391000000.0 0.8924276660187775 -0.28958155544458003 0.9529251268092155 -0.1437092466851811 3.2437689220951925e-05 0.0001429567003399558 4.7952967901580334e-05 0.0001758839154131769
 0.9529251268092155 -0.1437092466851811 0.8924276660187775 -0.28958155544458003 3.2437689220951925e-05 0.0001429567003399558 4.894807173044358e-05 0.00017236473841904587
 3.2437689220951925e-05 0.0001429567003399558 3.2437689220951925e-05 0.0001429567003399558 0.8517325457624948 -0.3573777347709706 0.9375617025555554 -0.17991778526504226
 3.3806649663246276e-05 0.00014318673436408452 4.894807173044358e-05 0.00017236473841904587 0.9375617025555554 -0.17991778526504226 0.8517325457624948 -0.3573777347709706
392000000.0 0.8921048629047079 -0.2905034469489703 0.9528181808116505 -0.14416902042186713 3.486677384941683e-05 0.0001423032237237352 5.099866039148205e-05 0.00017501370656953773
 0.9528181808116505 -0.14416902042186713 0.8921048629047079 -0.2905034469489703 3.486677384941683e-05 0.0001423032237237352 5.1987371709360925e-05 0.00017144352401947028
 3.486677384941683e-05 0.0001423032237237352 3.486677384941683e-05 0.0001423032237237352 0.8512402906918737 -0.35848694889520666 0.937395475927546 -0.18048707794231267
 3.62544097170787e-05 0.00014258080154312417 5.1987371709360925e-05 0.00017144352401947028 0.937395475927546 -0.18048707794231267 0.8512402906918737 -0.35848694889520666
393000000.0 0.8917739159727268 -0.29141959865969624 0.9527073307862918 -0.1446262193021788 3.725695006630279e-05 0.00014157117618093082 5.3994576882679794e-05 0.00017404580631725814
 0.9527073307862918 -0.1446262193021788 0.8917739159727268 -0.29141959865969624 3.725695006630279e-05 0.00014157117618093082 5.497367188427717e-05 0.00017042532695798598
 3.725695006630279e-05 0.00014157117618093082 3.725695006630279e-05 0.00014157117618093082 0.8507382497599418 -0.3595880604261387 0.9372244539502526 -0.18105278983038617
 3.866505745301795e-05 0.0001418959753050575 5.497367188427717e-05 0.00017042532695798598 0.9372244539502526 -0.18105278983038617 0.8507382497599418 -0.3595880604261387
394000000.0 0.8914351386686 -0.29232957178658775 0.9525927195972766 -0.14508062637836106 3.960433772996884e-05 0.00014076272445143163 5.693589983878022e-05 0.00017298296231299496
 0.9525927195972766 -0.14508062637836106 0.8914351386686 -0.29232957178658775 3.960433772996884e-05 0.00014076272445143163 5.790218643546043e-05 0.0001693130839427658
 3.960433772996884e-05 0.00014076272445143163 3.960433772996884e-05 0.00014076272445143163 0.8502268633912985 -0.36068055104799823 0.9370488351111076 -0.18161465787263278
 4.103469802776502e-05 0.0001411343139217015 5.790218643546043e-05 0.0001693130839427658 0.9370488351111076 -0.18161465787263278 0.8502268633912985 -0.36068055104799823
395000000.0 0.8910888716852637 -0.2932329452285171 0.952474503512125 -0.14553203269868667 4.190517706383024e-05 0.00013988026149827786 5.9817965334026263e-05 0.00017182820368246698
 0.952474503512125 -0.14553203269868667 0.8910888716852637 -0.2932329452285171 4.190517706383024e-05 0.00013988026149827786 6.0768294587769846e-05 0.00016811001172610722
 4.190517706383024e-05 0.00013988026149827786 4.190517706383024e-05 0.00013988026149827786 0.849706604446336 -0.3617639277908695 0.936868834261623 -0.18217243032363672
 4.335955045532849e-05 0.00014029810243669356 6.0768294587769846e-05 0.00016811001172610722 0.936868834261623 -0.18217243032363672 0.849706604446336 -0.3617639277908695
396000000.0 0.8907354820047058 -0.2941293173836205 0.9523528517767154 -0.14598023819138278 4.4155843092401726e-05 0.0001389264001068608 6.263628108487242e-05 0.00017058483269838701
 0.9523528517767154 -0.14598023819138278 0.8907354820047058 -0.2941293173836205 4.4155843092401726e-05 0.0001389264001068608 6.356755861479908e-05 0.00016681959806026257
 4.4155843092401726e-05 0.0001389264001068608 4.4155843092401726e-05 0.0001389264001068608 0.8491779767906396 -0.3628377252147137 0.936684681992066 -0.1827258678403398
 4.5635962038917536e-05 0.0001393898466755125 6.356755861479908e-05 0.00016681959806026257 0.936684681992066 -0.1827258678403398 0.8491779767906396 -0.3628377252147137
397000000.0 0.8903753618068404 -0.2950183079129203 0.9522279461258584 -0.14642505252885119 4.635285978874452e-05 0.00013790396545804758 6.538654408578648e-05 0.00016925641516987654
 0.9522279461258584 -0.14642505252885119 0.8903753618068404 -0.2950183079129203 4.635285978874452e-05 0.00013790396545804758 6.629574139793121e-05 0.00016544559135941897
 4.635285978874452e-05 0.00013790396545804758 4.635285978874452e-05 0.00013790396545804758 0.8486415137009189 -0.36390150751657274 0.9364966239254344 -0.18327474454112616
 4.786042254208491e-05 0.0001384122662340207 6.629574139793121e-05 0.00016544559135941897 0.9364966239254344 -0.18327474454112616 0.8486415137009189 -0.36390150751657274
398000000.0 0.890008927246939 -0.29589955944623036 0.9520999802299912 -0.14686629596684894 4.849291384943772e-05 0.00013681598668106583 6.806465774324852e-05 0.00016784676955462747
 0.9520999802299912 -0.14686629596684894 0.890008927246939 -0.29589955944623036 4.849291384943772e-05 0.00013681598668106583 6.894882343311364e-05 0.0001639919890828745
 4.849291384943772e-05 0.00013681598668106583 4.849291384943772e-05 0.00013681598668106583 0.8480977761110902 -0.36495487054700254 0.9363049199320572 -0.18381884902604276
 5.002957801603977e-05 0.00013736828644926076 6.894882343311364e-05 0.0001639919890828745 0.9363049199320572 -0.18381884902604276 0.8480977761110902 -0.36495487054700254
399000000.0 0.8896366171042375 -0.2967727392191726 0.9519691590790282 -0.14730380015323807 5.0572868012122563e-05 0.00013566568739991605 7.066674840104395e-05 0.00016635995481518006
 0.9519691590790282 -0.14730380015323807 0.8896366171042375 -0.2967727392191726 5.0572868012122563e-05 0.00013566568739991605 7.152301917762348e-05 0.00016246302486473295
 5.0572868012122563e-05 0.00013566568739991605 5.0572868012122563e-05 0.00013566568739991605 0.8475473507034956 -0.3659974437218621 0.9361098432667909 -0.18435798535135417
 5.21402441987948e-05 0.00013626102936406054 7.152301917762348e-05 0.00016246302486473295 0.9361098432667909 -0.18435798535135417 0.8475473507034956 -0.3659974437218621
400000000.0 0.8892588913054378 -0.29763754063017894 0.951835698304914 -0.14773740890092477 5.258977383043471e-05 0.00013445647529526848 7.318918115015719e-05 0.00016480025705105155
 0.951835698304914 -0.14773740890092477 0.8892588913054378 -0.29763754063017894 5.258977383043471e-05 0.00013445647529526848 7.401479262965692e-05 0.00016086315442594728
 5.258977383043471e-05 0.00013445647529526848 5.258977383043471e-05 0.00013445647529526848 0.8469908478516227 -0.36702889181585174 0.9359116796314572 -0.18489197395170967
 5.418941940138472e-05 0.00013509380370509374 7.401479262965692e-05 0.00016086315442594728 0.9359116796314572 -0.18489197395170967 0.8469908478516227 -0.36702889181585174
401000000.0 0.8888762293279144 -0.29849368470653515 0.9516998234449656 -0.14816697891966552 5.454088382180969e-05 0.0001331919307121412 7.562857481792837e-05 0.0001631721749489421
 0.9516998234449656 -0.14816697891966552 0.8888762293279144 -0.29849368470653515 5.454088382180969e-05 0.0001331919307121412 7.642087203531234e-05 0.00015919704031513768
 5.454088382180969e-05 0.0001331919307121412 5.454088382180969e-05 0.0001331919307121412 0.8464288994220457 -0.3680489166245721 0.9357107261658355 -0.18542065250334608
 5.617429679685251e-05 0.00013387009390230622 7.642087203531234e-05 0.00015919704031513768 0.9357107261658355 -0.18542065250334608 0.8464288994220457 -0.3680489166245721
402000000.0 0.8884891284885208 -0.2993409214688151 0.9515617691486095 -0.14859238050153586 5.642366290522583e-05 0.00013187579435204727 7.798181603364705e-05 0.0001614804041037353
 0.9515617691486095 -0.14859238050153586 0.8884891284885208 -0.2993409214688151 5.642366290522583e-05 0.00013187579435204727 7.873826362043866e-05 0.0001574695355351658
 5.642366290522583e-05 0.00013187579435204727 5.642366290522583e-05 0.00013187579435204727 0.845862156444662 -0.3690572584824397 0.9355072903711784 -0.18594387672197832
 5.8092276029058353e-05 0.00013259354818596068 7.873826362043866e-05 0.0001574695355351658 0.9355072903711784 -0.18594387672197832 0.845862156444662 -0.3690572584824397
403000000.0 0.888098102124989 -0.30017903118347017 0.9514217783306469 -0.14901349815504422 5.823579904847569e-05 0.00013051195409662726 8.024607227145033e-05 0.00015972982027334838
 0.9514217783306469 -0.14901349815504422 0.888098102124989 -0.30017903118347017 5.823579904847569e-05 0.00013051195409662726 8.096426424892281e-05 0.000155685666122807
 5.823579904847569e-05 0.00013051195409662726 5.823579904847569e-05 0.00013051195409662726 0.845291286661591 -0.37005369762449 0.9353016889708707 -0.18646152108932532
 5.994097406066473e-05 0.0001312679658058427 8.096426424892281e-05 0.000155685666122807 0.9353016889708707 -0.18646152108932532 0.845291286661591 -0.37005369762449
404000000.0 0.8877036776779386 -0.30100782549388305 0.9512801012746915 -0.14943023118309617 5.9975213048013057e-05 0.00012910443101793727 8.241880377625069e-05 0.00015792546164054307
 0.9512801012746915 -0.14943023118309617 0.8877036776779386 -0.30100782549388305 5.9975213048013057e-05 0.00012910443101793727 8.309647291425591e-05 0.00015385061275889622
 5.9975213048013057e-05 0.00012910443101793727 5.9975213048013057e-05 0.00012910443101793727 0.8447169719663348 -0.37103805538095846 0.9350942467134685 -0.18697347950259174
 6.171823518286973e-05 0.0001298972834253265 8.309647291425591e-05 0.00015385061275889622 0.9350942467134685 -0.18697347950259174 0.8447169719663348 -0.37103805538095846
405000000.0 0.88730639468252 -0.30182714842084424 0.9511369946908986 -0.14984249420032525 6.164006736881574e-05 0.00012765736463841458 8.449777428442625e-05 0.00015607251016441098
 0.9511369946908986 -0.14984249420032525 0.88730639468252 -0.30182714842084424 6.164006736881574e-05 0.00012765736463841458 8.513280097764121e-05 0.00015196969149586012
 6.164006736881574e-05 0.00012765736463841458 6.164006736881574e-05 0.00012765736463841458 0.8441399057459652 -0.3720101951945147 0.9348852951239335 -0.18747966584167125
 6.342214011361802e-05 0.000128485560750866 8.513280097764121e-05 0.00015196969149586012 0.9348852951239335 -0.18747966584167125 0.8441399057459652 -0.3720101951945147
406000000.0 0.886906802679644 -0.3026368772242018 0.9509927207325943 -0.15025021758564322 6.322877397699244e-05 0.00012617499751099663 8.648106045811e-05 0.0001541762721132823
 0.9509927207325943 -0.15025021758564322 0.886906802679644 -0.3026368772242018 6.322877397699244e-05 0.00012617499751099663 8.707148107341867e-05 0.00015004833369847227
 6.322877397699244e-05 0.00012617499751099663 6.322877397699244e-05 0.00012617499751099663 0.84356079014014 -0.3729700234511637 0.9346751712094277 -0.18798001444934062
 6.505101411606696e-05 0.0001270369654649767 8.707148107341867e-05 0.00015004833369847227 0.9346751712094277 -0.18798001444934062 0.84356079014014 -0.3729700234511637
407000000.0 0.8865054590576023 -0.303436923118286 0.9508475459768028 -0.15065334786627907 6.47400011039973e-05 0.0001246616591967911 8.836705996004472e-05 0.00015224215787911974
 0.9508475459768028 -0.15065334786627907 0.8865054590576023 -0.303436923118286 6.47400011039973e-05 0.0001246616591967911 8.891107461110915e-05 0.00014809206530182095
 6.47400011039973e-05 0.0001246616591967911 6.47400011039973e-05 0.0001246616591967911 0.8429803332317098 -0.3739174901170638 0.9344642161265116 -0.1884744805202921
 6.660343407498677e-05 0.00012555575753777056 8.891107461110915e-05 0.00014809206530182095 0.9344642161265116 -0.1884744805202921 0.8429803332317098 -0.3739174901170638
408000000.0 0.8861029268356587 -0.3042272318347187 0.9507017403740827 -0.15105184803001515 6.617267888825993e-05 0.00012312174972399425 9.015449810506093e-05 0.0001502756611809218
 0.9507017403740827 -0.15105184803001515 0.8861029268356587 -0.3042272318347187 6.617267888825993e-05 0.00012312174972399425 9.065047781285911e-05 0.00014610648549774348
 6.617267888825993e-05 0.00012312174972399425 6.617267888825993e-05 0.00012312174972399425 0.8423992461844612 -0.374852589174881 0.9342527738170241 -0.18896304039547332
 6.807823447548934e-05 0.0001240462729984997 9.065047781285911e-05 0.00014610648549774348 0.9342527738170241 -0.18896304039547332 0.8423992461844612 -0.374852589174881
409000000.0 0.8856997724018365 -0.30500778402726136 0.9505555761734095 -0.15144569776283745 6.75260038476891e-05 0.0001215597226173236 9.184243303416394e-05 0.00014828233777116275
 0.9505555761734095 -0.15144569776283745 0.8856997724018365 -0.30500778402726136 6.75260038476891e-05 0.0001215597226173236 9.228892623535417e-05 0.0001440972449672372
 6.75260038476891e-05 0.0001215597226173236 6.75260038476891e-05 0.0001215597226173236 0.8418182403442244 -0.37577535885473684 0.9340411896202735 -0.18944569175888554
 6.94745122359117e-05 0.00012251290725426 9.228892623535417e-05 0.0001440972449672372 0.9340411896202735 -0.18944569175888554 0.8418182403442244 -0.37577535885473684
410000000.0 0.8852965632176858 -0.3057785955145062 0.9504093268281221 -0.15183489360974028 6.879944214480299e-05 0.00011998006759197889 9.343025936788064e-05 0.00014626778376472283
 0.9504093268281221 -0.15183489360974028 0.8852965632176858 -0.3057785955145062 6.879944214480299e-05 0.00011998006759197889 9.382599773627609e-05 0.00014207002378150213
 6.879944214480299e-05 0.00011998006759197889 6.879944214480299e-05 0.00011998006759197889 0.8412380243200664 -0.3766858816563398 0.9338298088694758 -0.18992245373469951
 7.079163035476912e-05 0.00012096009804789945 9.382599773627609e-05 0.00014207002378150213 0.9338298088694758 -0.18992245373469951 0.8412380243200664 -0.3766858816563398
411000000.0 0.8848938655032368 -0.3065397173574136 0.9502632658891775 -0.15221944905700044 6.99927316150575e-05 0.00011838729301000348 9.491771030677828e-05 0.00014423761371403873
 0.9502632658891775 -0.15221944905700044 0.8848938655032368 -0.3065397173574136 6.99927316150575e-05 0.00011838729301000348 9.52616138569429e-05 0.000140030509098224
 6.99927316150575e-05 0.00011838729301000348 6.99927316150575e-05 0.00011838729301000348 0.8406593010626375 -0.377584284160464 0.9336189754805658 -0.190393366883304
 7.202922034032172e-05 0.00011939230815120537 9.52616138569429e-05 0.000140030509098224 0.9336189754805658 -0.190393366883304 0.8406593010626375 -0.377584284160464
412000000.0 0.8844922419156339 -0.3072912357699507 0.9501176658921398 -0.15259939453481897 7.110588253819658e-05 0.00011678590819981058 9.630485815878922e-05 0.00014219743855723967
 0.9501176658921398 -0.15259939453481897 0.8844922419156339 -0.3072912357699507 7.110588253819658e-05 0.00011678590819981058 9.659603960476585e-05 0.00013798437278238852
 7.110588253819658e-05 0.00011678590819981058 7.110588253819658e-05 0.00011678590819981058 0.8400827649569 -0.3784707366295556 0.9334090305416454 -0.1908584930956678
 7.318718340037897e-05 0.00011781400789252624 9.659603960476585e-05 0.00013798437278238852 0.9334090305416454 -0.1908584930956678 0.8400827649569 -0.3784707366295556
413000000.0 0.8840922492351059 -0.3080332718623564 0.9499727972443933 -0.152974777339841 7.213917714199754e-05 0.00011518040574151758 9.759211328499961e-05 0.00014015284356779477
 0.9499727972443933 -0.152974777339841 0.8840922492351059 -0.3080332718623564 7.213917714199754e-05 0.00011518040574151758 9.782988163141374e-05 0.00013593724908229714
 7.213917714199754e-05 0.00011518040574151758 7.213917714199754e-05 0.00011518040574151758 0.8395090989464713 -0.3793454523988767 0.9332003109113796 -0.1913179153861783
 7.426569037936494e-05 0.00011622965762007427 9.782988163141374e-05 0.00013593724908229714 0.9332003109113796 -0.1913179153861783 0.8395090989464713 -0.3793454523988767
414000000.0 0.8836944360719426 -0.30876598121786103 0.949828927119143 -0.1533456614776803 7.30931678375186e-05 0.00011357524382157843 9.878022146773208e-05 0.00013810936643464484
 0.949828927119143 -0.1533456614776803 0.8836944360719426 -0.30876598121786103 7.30931678375186e-05 0.00011357524382157843 9.896408481493526e-05 0.0001338947124914934
 7.30931678375186e-05 0.00011357524382157843 7.30931678375186e-05 0.00011357524382157843 0.8389389717066182 -0.38020868706121513 0.9329931478346088 -0.19177173758490665
 7.526518043927374e-05 0.00011464369020322284 9.896408481493526e-05 0.0001338947124914934 0.9329931478346088 -0.19177173758490665 0.8389389717066182 -0.38020868706121513
415000000.0 0.8832993406080334 -0.30948955330496286 0.9496863183627069 -0.1537121274261868 7.396867419474305e-05 0.00011197482875997427 9.987025971691368e-05 0.0001360724756009137
 0.9496863183627069 -0.1537121274261868 0.8832993406080334 -0.30948955330496286 7.396867419474305e-05 0.00011197482875997427 9.999992726639739e-05 0.00013186225592600912
 7.396867419474305e-05 0.00011197482875997427 7.396867419474305e-05 0.00011197482875997427 0.8383730348825912 -0.3810607374497855 0.93278786558332 -0.19222008393101567
 7.618635849083017e-05 0.00011306049367412451 9.999992726639739e-05 0.00013186225592600912 0.93278786558332 -0.19222008393101567 0.8383730348825912 -0.3810607374497855
416000000.0 0.88290748838625 -0.31020421072864574 0.9495452284215143 -0.1540742718208165 7.476677867722147e-05 0.00011038349781194429 0.00010086363054270347 0.0001340475489871033
 0.9495452284215143 -0.1540742718208165 0.88290748838625 -0.31020421072864574 7.476677867722147e-05 0.00011038349781194429 0.0001009390137936779 0.00012984526934371128
 7.476677867722147e-05 0.00011038349781194429 7.476677867722147e-05 0.00011038349781194429 0.8378119204094506 -0.3819019404254885 0.9325847801309115 -0.19266309856979863
 7.703019139080036e-05 0.00011148439411094294 0.0001009390137936779 0.00012984526934371128 0.9325847801309115 -0.19266309856979863 0.8378119204094506 -0.3819019404254885
417000000.0 0.8825193901605725 -0.31091020832513877 0.9494059082950521 -0.1544322070640478 7.5488821163822e-05 0.00010880550234391004 0.00010176205473401165 0.00013203985322121262
 0.9494059082950521 -0.1544322070640478 0.8825193901605725 -0.31091020832513877 7.5488821163822e-05 0.00010880550234391004 0.00010178326786675738 0.00012784901892861977
 7.5488821163822e-05 0.00010880550234391004 7.5488821163822e-05 0.00010880550234391004 0.8372562379288528 -0.3827326714761639 0.9323841978674025 -0.1931009449565494
 7.779790293085762e-05 0.00010991963886191553 0.00010178326786675738 0.00012784901892861977 0.9323841978674025 -0.1931009449565494 0.8372562379288528 -0.3827326714761639
418000000.0 0.8821355398193247 -0.31160783210600773 0.9492686015207901 -0.1547860608613687 7.613639229486665e-05 0.00010724499147991914 0.00010256756269370727 0.00013005452349353116
 0.9492686015207901 -0.1547860608613687 0.8821355398193247 -0.31160783210600773 7.613639229486665e-05 0.00010724499147991914 0.00010253492214002333 0.00012587862695793699
 7.613639229486665e-05 0.00010724499147991914 7.613639229486665e-05 0.00010724499147991914 0.83670657231742 -0.38355334313687006 0.9321864143628693 -0.1935338051711617
 7.849096765255557e-05 0.00010837038020639677 0.00010253492214002333 0.00012587862695793699 0.9321864143628693 -0.1935338051711617 0.83670657231742 -0.38355334313687006
419000000.0 0.8817564123932368 -0.31229739805845974 0.9491335431968017 -0.155135975686891 7.671132568866316e-05 0.0001057059963106359 0.00010328248439186342 0.00012809654414801272
 0.9491335431968017 -0.155135975686891 0.8817564123932368 -0.31229739805845974 7.671132568866316e-05 0.0001057059963106359 0.00010319650759760221 0.00012393905246323915
 7.671132568866316e-05 0.0001057059963106359 7.671132568866316e-05 0.0001057059963106359 0.836163481340337 -0.38436440324148435 0.9319917131859676 -0.19396187914799645
 7.911110353169875e-05 0.0001068406595449869 0.00010319650759760221 0.00012393905246323915 0.9319917131859676 -0.19396187914799645 0.836163481340337 -0.38436440324148435
420000000.0 0.881382462159309 -0.31297925080979433 0.9490009590474843 -0.1554821081821699 7.721568908260833e-05 0.00010419241475173386 0.00010390943800817436 0.00012617073011523237
 0.9490009590474843 -0.1554821081821699 0.881382462159309 -0.31297925080979433 7.721568908260833e-05 0.00010419241475173386 0.00010377084139743159 0.00012203507278995312
 7.721568908260833e-05 0.00010419241475173386 7.721568908260833e-05 0.00010419241475173386 0.8356274934427108 -0.3851663330170933 0.9318003647838831 -0.19438538382614615
 7.966026358360223e-05 0.00010533439220593302 0.00010377084139743159 0.00012203507278995312 0.9318003647838831 -0.19438538382614615 0.8356274934427108 -0.3851663330170933
421000000.0 0.8810141208505673 -0.31365376216483426 0.9488710645373645 -0.155824628492246 7.765177446054694e-05 0.00010270799713254592 0.00010445131734360178 0.00012428170928407932
 0.9488710645373645 -0.155824628492246 0.8810141208505673 -0.31365376216483426 7.765177446054694e-05 0.00010270799713254592 0.00010426101349856426 0.00012017126615097258
 7.765177446054694e-05 0.00010270799713254592 7.765177446054694e-05 0.00010270799713254592 0.8350991056900172 -0.38595964503365426 0.9316126254295303 -0.19480455222575133
 8.014062644829968e-05 0.00010385535294923558 0.00010426101349856426 0.00012017126615097258 0.9316126254295303 -0.19480455222575133 0.8350991056900172 -0.38595964503365426
422000000.0 0.8806517959808837 -0.31432132952602354 0.9487440640375583 -0.15616371954336167 7.80220872348361e-05 0.00010125633258912227 0.00010491127808924843 0.0001224339059006434
 0.9487440640375583 -0.15616371954336167 0.8806517959808837 -0.31432132952602354 7.80220872348361e-05 0.00010125633258912227 0.0001046703721639627 0.00011835199526118497
 7.80220872348361e-05 0.00010125633258912227 7.80220872348361e-05 0.00010125633258912227 0.8345787818676541 -0.386744881022291 0.9314287362411898 -0.19521963245647972
 8.05545860216142e-05 0.00010240716224342308 0.0001046703721639627 0.00011835199526118497 0.9314287362411898 -0.19521963245647972 0.8345787818676541 -0.386744881022291
423000000.0 0.8802958692929966 -0.314982374206577 0.9486201500489752 -0.15649957626715008 7.83293345575107e-05 9.984083632851066e-05 0.00010529272304735622 0.000120631525073365
 0.9486201500489752 -0.15649957626715008 0.8802958692929966 -0.314982374206577 7.83293345575107e-05 9.984083632851066e-05 0.00010500250843771905 0.00011658139212992361
 7.83293345575107e-05 9.984083632851066e-05 7.83293345575107e-05 9.984083632851066e-05 0.8340669507482448 -0.3875226095763134 0.9312489222791572 -0.19563088666467685
 8.090474020405792e-05 0.00010099327338284569 0.00010500250843771905 0.00011658139212992361 0.9312489222791572 -0.19563088666467685 0.8340669507482448 -0.3875226095763134
424000000.0 0.8799466953367944 -0.3156373396476614 0.9484995024858462 -0.15683240477640123 7.857641284000924e-05 9.846473782323609e-05 0.0001055992864050953 0.00011887853845356022
 0.9484995024858462 -0.15683240477640123 0.8799466953367944 -0.3156373396476614 7.857641284000924e-05 9.846473782323609e-05 0.00010526123970115234 0.00011486334407806496
 7.857641284000924e-05 9.846473782323609e-05 7.857641284000924e-05 9.846473782323609e-05 0.8335640045339054 -0.3882934237496126 0.9310733917232927 -0.19603858992600143
 8.119387884472694e-05 9.961696050570773e-05 0.00010526123970115234 0.00011486334407806496 0.9310733917232927 -0.19603858992600143 0.8335640045339054 -0.3882934237496126
425000000.0 0.879604600183812 -0.3162866895510608 0.9483822880226448 -0.15716242149776163 7.87663945650669e-05 9.71310699867239e-05 0.0001058348171664257 0.0001171786711500661
 0.9483822880226448 -0.15716242149776163 0.879604600183812 -0.3162866895510608 7.87663945650669e-05 9.71310699867239e-05 0.00010545059241656847 0.00011320148103582104
 7.87663945650669e-05 9.71310699867239e-05 7.87663945650669e-05 9.71310699867239e-05 0.8330702974792398 -0.3890579385674947 0.9309023351346852 -0.19644302909060227
 8.142497096165301e-05 9.828130756501628e-05 0.00010545059241656847 0.00011320148103582104 0.9309023351346852 -0.19644302909060227 0.8330702974792398 -0.3890579385674947
426000000.0 0.8792698802827377 -0.31693090593911194 0.9482686595069157 -0.15748985226689788 7.890251447757455e-05 9.584265937189851e-05 0.00010600336185073988 0.00011553538992609893
 0.9482686595069157 -0.15748985226689788 0.8792698802827377 -0.31693090593911194 7.890251447757455e-05 9.584265937189851e-05 0.00010557478417058081 0.00011159916416635853
 7.890251447757455e-05 9.584265937189851e-05 7.890251447757455e-05 9.584265937189851e-05 0.8325861446993476 -0.3898167884652491 0.9307359248039393 -0.19684450158804626
 8.160115132343563e-05 9.698919829627815e-05 0.00010557478417058081 0.00011159916416635853 0.9307359248039393 -0.19684450158804626 0.8325861446993476 -0.3898167884652491
427000000.0 0.8789428014595684 -0.3175704871539104 0.948158755439983 -0.15781493139178732 7.898815524343677e-05 9.460211742651759e-05 0.00010610914656923018 0.00011395189271565011
 0.948158755439983 -0.15781493139178732 0.8789428014595684 -0.3175704871539104 7.898815524343677e-05 9.460211742651759e-05 0.00010563820513079762 0.00011005947584937752
 7.898815524343677e-05 9.460211742651759e-05 7.898815524343677e-05 9.460211742651759e-05 0.8321118211656653 -0.3905706246698395 0.9305743141878909 -0.19724331419930033
 8.172570647939574e-05 9.574330721725802e-05 0.00010563820513079762 0.00011005947584937752 0.9305743141878909 -0.19724331419930033 0.8321118211656653 -0.3905706246698395
428000000.0 0.8786235980649088 -0.318205945807878 0.9480526995269589 -0.1581379006898555 7.902683266673774e-05 9.341183283009673e-05 0.00010615655859098687 0.00011243109948599343
 0.9480526995269589 -0.1581379006898555 0.8786235980649088 -0.318205945807878 7.902683266673774e-05 9.341183283009673e-05 0.00010564539903039625 0.00010858521104784643
 7.902683266673774e-05 9.341183283009673e-05 7.902683266673774e-05 9.341183283009673e-05 0.831647560891043 -0.39132011254003246 0.9304176374358778 -0.1976397818030676
 8.180206032695967e-05 9.454609168652647e-05 0.00010564539903039625 0.00010858521104784643 0.9304176374358778 -0.1976397818030676 0.831647560891043 -0.39132011254003246
429000000.0 0.8783124722697584 -0.3188378066977384 0.9479506002969346 -0.15845900850469027 7.9022180555859e-05 9.227396492863563e-05 0.00010615012751074679 0.00011097564446227246
 0.9479506002969346 -0.15845900850469027 0.8783124722697584 -0.3188378066977384 7.9022180555859e-05 9.227396492863563e-05 0.00010560104379465889 0.00010717887007033354
 7.9022180555859e-05 9.227396492863563e-05 7.9022180555859e-05 9.227396492863563e-05 0.8311935563040351 -0.3920659288800533 0.9302660090059992 -0.1980342261037193
 8.183375930552209e-05 9.339978503898823e-05 0.00010560104379465889 0.00010717887007033354 0.9302660090059992 -0.1980342261037193 0.8311935563040351 -0.3920659288800533
430000000.0 0.8780095935100497 -0.3194666046938059 0.9478525507937013 -0.15877850870800495 7.897793532862834e-05 9.119043827490287e-05 0.00010609450612903959 0.00010958786971982661
 0.9478525507937013 -0.15877850870800495 0.8780095935100497 -0.3194666046938059 7.897793532862834e-05 9.119043827490287e-05 0.0001055099319220107 0.00010584265273096323
 7.897793532862834e-05 9.119043827490287e-05 7.897793532862834e-05 9.119043827490287e-05 0.8307499578110848 -0.39280875924151315 0.9301195233711627 -0.19842697434793227
 8.182445730567825e-05 9.230639080820463e-05 0.0001055099319220107 0.00010584265273096323 0.9301195233711627 -0.19842697434793227 0.8307499578110848 -0.39280875924151315
431000000.0 0.877715098079121 -0.32009288261621444 0.9477586283368372 -0.1590966596924248 7.88979204451457e-05 9.01629382738551e-05 0.00010599445115326603 0.00010826982013999859
 0.9477586283368372 -0.1590966596924248 0.877715098079121 -0.32009288261621444 7.88979204451457e-05 9.01629382738551e-05 0.00010537695072952125 0.00010457845389903904
 7.88979204451457e-05 9.01629382738551e-05 7.88979204451457e-05 9.01629382738551e-05 0.830316873543993 -0.39354929522785786 0.9299782548140955 -0.1988183580369429
 8.177790038149344e-05 9.126767803719793e-05 0.00010537695072952125 0.00010457845389903904 0.9299782548140955 -0.1988183580369429 0.830316873543993 -0.39354929522785786
432000000.0 0.8774290888663299 -0.3207171891093656 0.9476688943525254 -0.1594137233605054 7.878603075470598e-05 8.919290792496627e-05 0.00010585480382508368 0.00010702323971576378
 0.9476688943525254 -0.1594137233605054 0.8774290888663299 -0.3207171891093656 7.878603075470598e-05 8.919290792496627e-05 0.00010520706256931374 0.00010338786042095018
 7.878603075470598e-05 8.919290792496627e-05 7.878603075470598e-05 8.919290792496627e-05 0.8298943692889139 -0.3942882318149955 0.929842257309907 -0.1992087116410794
 8.169791135146059e-05 9.028517767165622e-05 0.00010520706256931374 0.00010338786042095018 0.929842257309907 -0.1992087116410794 0.8298943692889139 -0.3942882318149955
433000000.0 0.8771516352390669 -0.3213400765254073 0.9475833942729929 -0.1597299641152027 7.864621684026847e-05 8.828154564588675e-05 0.00010568047057544885 0.00010584956918472445
 0.9475833942729929 -0.1597299641152027 0.8771516352390669 -0.3213400765254073 7.864621684026847e-05 8.828154564588675e-05 0.0001050052851179442 0.00010227214938818991
 7.864621684026847e-05 8.828154564588675e-05 7.864621684026847e-05 8.828154564588675e-05 0.8294824685920265 -0.3950262647010539 0.9297115644942635 -0.19959837132292158
 8.158837437103669e-05 8.936018002211267e-05 0.0001050052851179442 0.00010227214938818991 0.9297115644942635 -0.19959837132292158 0.8294824685920265 -0.3950262647010539
434000000.0 0.8768827730645741 -0.32196209882702265 0.947502157503063 -0.16004564785676784 7.848246944029952e-05 8.742980415503109e-05 0.00010547640380386828 0.00010474994495889334
 0.947502157503063 -0.16004564785676784 0.8768827730645741 -0.32196209882702265 7.848246944029952e-05 8.742980415503109e-05 0.00010477667183568115 0.00010123228771724494
 7.848246944029952e-05 8.742980415503109e-05 7.848246944029952e-05 8.742980415503109e-05 0.8290811530360732 -0.3957640876974406 0.9295861897147489 -0.19998767367510098
 8.145321955622293e-05 8.849373327483699e-05 0.00010477667183568115 0.00010123228771724494 0.9295861897147489 -0.19998767367510098 0.8290811530360732 -0.3957640876974406
435000000.0 0.8766225048672072 -0.3225838095191992 0.9474251974519117 -0.16036104099076506 7.829880402360535e-05 8.663839038444587e-05 0.00010524758287295337 0.0001037251993133303
 0.9474251974519117 -0.16036104099076506 0.8766225048672072 -0.3225838095191992 7.829880402360535e-05 8.663839038444587e-05 0.00010452629268682864 0.00010026893299983151
 7.829880402360535e-05 8.663839038444587e-05 7.829880402360535e-05 8.663839038444587e-05 0.8286903626810947 -0.3965023901725075 0.9294661261625359 -0.20037695447834938
 8.129640773364194e-05 8.76866430248995e-05 0.00010452629268682864 0.00010026893299983151 0.9294661261625359 -0.20037695447834938 0.8286903626810947 -0.3965023901725075
436000000.0 0.8763708001160782 -0.32320575961898673 0.947352511627797 -0.16067640945160314 7.809924558807631e-05 8.590776638870124e-05 0.00010499899540335451 0.00010277586178912288
 0.947352511627797 -0.16067640945160314 0.8763708001160782 -0.32320575961898673 7.809924558807631e-05 8.590776638870124e-05 0.00010425921520591933 9.938243557549306e-05
 7.809924558807631e-05 8.590776638870124e-05 7.809924558807631e-05 8.590776638870124e-05 0.8283099966619484 -0.3972418545582175 0.929351347081123 -0.20076654748499992
 8.11219153880504e-05 8.693947279920729e-05 0.00010425921520591933 9.938243557549306e-05 0.929351347081123 -0.20076654748499992 0.8283099966619484 -0.3972418545582175
437000000.0 0.8761275956374383 -0.32382849567153854 0.947284081793212 -0.16099201774565716 7.788781374915861e-05 8.523815121059798e-05 0.00010473561894768726 0.00010190216176047391
 0.947284081793212 -0.16099201774565716 0.8761275956374383 -0.32382849567153854 7.788781374915861e-05 8.523815121059798e-05 0.00010398048598785348 9.857284177298312e-05
 7.788781374915861e-05 8.523815121059798e-05 7.788781374915861e-05 8.523815121059798e-05 0.8279399139345829 -0.39798315392924505 0.9292418060485642 -0.20115678323269706
 8.093371987329373e-05 8.625254553229342e-05 0.00010398048598785348 9.857284177298312e-05 0.9292418060485642 -0.20115678323269706 0.8279399139345829 -0.39798315392924505
438000000.0 0.8758927961456392 -0.32445255781998655 0.9472198741776782 -0.16130812801768674 7.766850817844988e-05 8.462952366022124e-05 0.00010446240311526265 0.00010110403211077392
 0.9472198741776782 -0.16130812801768674 0.8758927961456392 -0.32445255781998655 7.766850817844988e-05 8.462952366022124e-05 0.00010369511267300319 9.783989826213108e-05
 7.766850817844988e-05 8.462952366022124e-05 7.766850817844988e-05 8.462952366022124e-05 0.8275799341625271 -0.3987269496629651 0.929137437329339 -0.20154798789261202
 8.07357849474499e-05 8.562594595329646e-05 0.00010369511267300319 9.783989826213108e-05 0.929137437329339 -0.20154798789261202 0.8275799341625271 -0.3987269496629651
439000000.0 0.8756662748861148 -0.3250784779359309 0.9471598397451703 -0.16162499914391576 7.744529444717156e-05 8.408162596031003e-05 0.00010418425221240457 0.00010038111395852266
 0.9471598397451703 -0.16162499914391576 0.8756662748861148 -0.3250784779359309 7.744529444717156e-05 8.408162596031003e-05 0.00010340804649104154 9.718305745405582e-05
 7.744529444717156e-05 8.408162596031003e-05 7.744529444717156e-05 8.408162596031003e-05 0.8272298387346805 -0.39947388918778604 0.929038156291808 -0.20194048215600202
 8.053204668740818e-05 8.505952383890848e-05 0.00010340804649104154 9.718305745405582e-05 0.929038156291808 -0.20194048215600202 0.8272298387346805 -0.39947388918778604
440000000.0 0.8754478743835069 -0.32570677781655805 0.9471039145130061 -0.16194288585477293 7.722209032348426e-05 8.359396820804019e-05 0.00010390600845598288 9.973276237079373e-05
 0.9471039145130061 -0.16194288585477293 0.8754478743835069 -0.32570677781655805 7.722209032348426e-05 8.359396820804019e-05 0.00010312416541989512 9.660148388461673e-05
 7.722209032348426e-05 8.359396820804019e-05 7.722209032348426e-05 8.359396820804019e-05 0.8268893719052086 -0.4002246038262924 0.9289438598870389 -0.20233458016246694
 8.032639983247406e-05 8.45528980840941e-05 0.00010312416541989512 9.660148388461673e-05 0.9289438598870389 -0.20233458016246694 0.8268893719052086 -0.4002246038262924
441000000.0 0.8752374072878291 -0.32633796745360316 0.9470520199189129 -0.16226203788990937 7.700275256677163e-05 8.316583360113817e-05 0.00010363243581061584 9.915805299960187e-05
 0.9470520199189129 -0.16226203788990937 0.8752374072878291 -0.32633796745360316 7.700275256677163e-05 8.316583360113817e-05 0.00010284825800886887 9.60940615138665e-05
 7.700275256677163e-05 8.316583360113817e-05 7.700275256677163e-05 8.316583360113817e-05 0.826558242046193 -0.40097970673867955 0.9288544271846745 -0.20273058847281283
 8.01226846008621e-05 8.410546154008495e-05 0.00010284825800886887 9.60940615138665e-05 0.9288544271846745 -0.20273058847281283 0.826558242046193 -0.40097970673867955
442000000.0 0.8750346573114238 -0.326972543378628 0.9470040632328927 -0.16258269918776355 7.6791064256196e-05 8.279628437472342e-05 0.00010336820449288575 9.865578957500439e-05
 0.9470040632328927 -0.16258269918776355 0.8750346573114238 -0.326972543378628 7.6791064256196e-05 8.279628437472342e-05 0.00010258500790773287 9.565940187295825e-05
 7.6791064256196e-05 8.279628437472342e-05 7.6791064256196e-05 8.279628437472342e-05 0.8262361230036334 -0.4017397909710196 0.9287697199614695 -0.20312880508895445
 7.992467401721482e-05 8.371638656751515e-05 0.00010258500790773287 9.565940187295825e-05 0.9287697199614695 -0.20312880508895445 0.8262361230036334 -0.4017397909710196
443000000.0 0.874839380249416 -0.32761098708831715 0.9469599380104783 -0.16290510711157197 7.659072268510716e-05 8.248416839439716e-05 0.0001031178761789618 9.822451218799659e-05
 0.9469599380104783 -0.16290510711157197 0.874839380249416 -0.32761098708831715 7.659072268510716e-05 8.248416839439716e-05 0.0001023389791364922 9.529585298940925e-05
 7.659072268510716e-05 8.248416839439716e-05 7.659072268510716e-05 8.248416839439716e-05 0.8259226555474246 -0.40250542761196817 0.9286895833381131 -0.20352951852286197
 7.973606178364441e-05 8.338463125155527e-05 0.0001023389791364922 9.529585298940925e-05 0.9286895833381131 -0.20352951852286197 0.8259226555474246 -0.40250542761196817
444000000.0 0.8746513050763798 -0.3282537635527916 0.9469195245839652 -0.16322949171339451 7.640532784731742e-05 8.222812635081042e-05 0.00010288588994530194 9.786250629620771e-05
 0.9469195245839652 -0.16322949171339451 0.8746513050763798 -0.3282537635527916 7.640532784731742e-05 8.222812635081042e-05 0.00010211460212374554 9.500150902179541e-05
 7.640532784731742e-05 8.222812635081042e-05 7.640532784731742e-05 8.222812635081042e-05 0.825617448906072 -0.4032771640606702 0.9286138464599824 -0.2039330069161321
 7.956045072128949e-05 8.310894622549094e-05 0.00010211460212374554 9.500150902179541e-05 0.9286138464599824 -0.2039330069161321 0.825617448906072 -0.4032771640606702
445000000.0 0.8744701351120266 -0.32890131980924153 0.9468826905882252 -0.16355607503737216 7.623837153591389e-05 8.202659950121948e-05 0.0001026765489656892 9.756781238600341e-05
 0.9468826905882252 -0.16355607503737216 0.8744701351120266 -0.32890131980924153 7.623837153591389e-05 8.202659950121948e-05 0.0001019161605350563 9.477422053577216e-05
 7.623837153591389e-05 8.202659950121948e-05 7.623837153591389e-05 8.202659950121948e-05 0.8253200823771143 -0.40405552240779297 0.9285423232175704 -0.20433953721136264
 7.94013418040873e-05 8.288788204933566e-05 0.0001019161605350563 9.477422053577216e-05 0.9285423232175704 -0.20433953721136264 0.8253200823771143 -0.40405552240779297
446000000.0 0.8742955492488773 -0.32955408364254246 0.9468492915177819 -0.16388507046315326 7.609322707020596e-05 8.187783790431961e-05 0.00010249400798179957 9.733823622580504e-05
 0.9468492915177819 -0.16388507046315326 0.8742955492488773 -0.32955408364254246 7.609322707020596e-05 8.187783790431961e-05 0.00010174777890666138 9.461160535473871e-05
 7.609322707020596e-05 8.187783790431961e-05 7.609322707020596e-05 8.187783790431961e-05 0.8250301070044931 -0.40484099793086814 0.928474813002411 -0.20474936437614472
 7.926212380142079e-05 8.27197970907265e-05 0.00010174777890666138 9.461160535473871e-05 0.928474813002411 -0.20474936437614472 0.8250301070044931 -0.40484099793086814
447000000.0 0.8741272032350909 -0.3302124623539234 0.9468191713119185 -0.16421668209010226 7.597313966164999e-05 8.177990909588996e-05 0.00010234226155885104 9.717135964716187e-05
 0.9468191713119185 -0.16421668209010226 0.8741272032350909 -0.3302124623539234 7.597313966164999e-05 8.177990909588996e-05 0.00010161341109417945 9.451105992040206e-05
 7.597313966164999e-05 8.177990909588996e-05 7.597313966164999e-05 8.177990909588996e-05 0.824747047314457 -0.40563405770443567 0.9284111014945097 -0.2051627306801408
 7.914606354156405e-05 8.260286585646397e-05 0.00010161341109417945 9.451105992040206e-05 0.9284111014945097 -0.2051627306801408 0.824747047314457 -0.40563405770443567
448000000.0 0.8739647310058754 -0.33087684161820646 0.9467921629646822 -0.164551104162673 7.588121742518933e-05 8.173070715442561e-05 0.00010222513313268515 9.706455179231269e-05
 0.9467921629646822 -0.164551104162673 0.8739647310058754 -0.33087684161820646 7.588121742518933e-05 8.173070715442561e-05 0.00010151682954078652 9.446977110089797e-05
 7.588121742518933e-05 8.173070715442561e-05 7.588121742518933e-05 8.173070715442561e-05 0.8244704031019674 -0.4064351393248572 0.9283509614774115 -0.20557986502541076
 7.905629680345186e-05 8.253508772458425e-05 0.00010151682954078652 9.446977110089797e-05 0.9283509614774115 -0.20557986502541076 0.8244704031019674 -0.4064351393248572
449000000.0 0.8738077460572106 -0.33154758442964916 0.9467680891568088 -0.16488852053705425 7.582042303842627e-05 8.172796210792542e-05 0.0001021462648499196 9.701498076955826e-05
 0.9467680891568088 -0.16488852053705425 0.8738077460572106 -0.33154758442964916 7.582042303842627e-05 8.172796210792542e-05 0.00010146161536464188 9.448472838690263e-05
 7.582042303842627e-05 8.172796210792542e-05 7.582042303842627e-05 8.172796210792542e-05 0.8241996512600097 -0.4072446497491339 0.9282941536772708 -0.2060009823298781
 7.89958198402685e-05 8.251429602872732e-05 0.00010146161536464188 9.448472838690263e-05 0.9282941536772708 -0.2060009823298781 0.8241996512600097 -0.4072446497491339
450000000.0 0.8736558428559407 -0.33222503013598437 0.9467467629067287 -0.16522910418901313 7.579356604742185e-05 8.176924963528591e-05 0.00010210910819859296 9.701962566068242e-05
 0.9467467629067287 -0.16522910418901313 0.8736558428559407 -0.33222503013598437 7.579356604742185e-05 8.176924963528591e-05 0.00010145114926117082 9.455273641926236e-05
 7.579356604742185e-05 8.176924963528591e-05 7.579356604742185e-05 8.176924963528591e-05 0.8239342476446686 -0.4080629642465699 0.9282404276224677 -0.20642628296357277
 7.89674815347158e-05 8.253816744873968e-05 0.00010145114926117082 9.455273641926236e-05 0.9282404276224677 -0.20642628296357277 0.8239342476446686 -0.4080629642465699
451000000.0 0.8735085982806523 -0.332909493559878 0.94672798823798 -0.16557301676264816 7.580329581471592e-05 8.185200101826853e-05 0.00010211691542302843 9.707528882782872e-05
 0.94672798823798 -0.16557301676264816 0.8735085982806523 -0.332909493559878 7.580329581471592e-05 8.185200101826853e-05 0.00010148860321217925 9.46704277950022e-05
 7.580329581471592e-05 8.185200101826853e-05 7.580329581471592e-05 8.185200101826853e-05 0.8236736289693097 -0.4088904254617472 0.9281895225205541 -0.2068559522371013
 7.897397618258517e-05 8.260423166386704e-05 0.00010148860321217925 9.46704277950022e-05 0.9281895225205541 -0.2068559522371013 0.8236736289693097 -0.4088904254617472
452000000.0 0.8733655730881283 -0.3336012642067033 0.9467115608605315 -0.1659204081596235 7.585209510237922e-05 8.197351330270013e-05 0.000102172731713465 9.717860847059285e-05
 0.9467115608605315 -0.1659204081596235 0.8733655730881283 -0.3336012642067033 7.585209510237922e-05 8.197351330270013e-05 0.00010157693299066777 9.4834276102074e-05
 7.585209510237922e-05 8.197351330270013e-05 7.585209510237922e-05 8.197351330270013e-05 0.8234172147217014 -0.40972734258692944 0.9281411681495255 -0.2072901599416097
 7.901783689844309e-05 8.270988122749418e-05 0.00010157693299066777 9.4834276102074e-05 0.9281411681495255 -0.2072901599416097 0.8234172147217014 -0.40972734258692944
453000000.0 0.8732263134005499 -0.33430060555726965 0.9466972688636963 -0.16627141616831026 7.59422742805523e-05 8.213095963038755e-05 0.00010227938815834638 9.73260713875761e-05
 0.9466972688636963 -0.16627141616831026 0.8732263134005499 -0.33430060555726965 7.59422742805523e-05 8.213095963038755e-05 0.00010171887144763917 9.504060913682102e-05
 7.59422742805523e-05 8.213095963038755e-05 7.59422742805523e-05 8.213095963038755e-05 0.8231644090984073 -0.41057399064177574 0.928095085760666 -0.20772905993937327
 7.910142963483814e-05 8.285238162512745e-05 0.00010171887144763917 9.504060913682102e-05 0.928095085760666 -0.20772905993937327 0.8231644090984073 -0.41057399064177574
454000000.0 0.8730903522090121 -0.335007754443942 0.9466848934185083 -0.1666261661321675 7.607596614998923e-05 8.232139970611559e-05 0.0001024394954450063 9.751402590017655e-05
 0.9466848934185083 -0.1666261661321675 0.8730903522090121 -0.335007754443942 7.607596614998923e-05 8.232139970611559e-05 0.00010191692256513758 9.528562226178287e-05
 7.607596614998923e-05 8.232139970611559e-05 7.607596614998923e-05 8.232139970611559e-05 0.8229146029512732 -0.4114306098580435 0.9280509889904272 -0.20817278980404708
 7.922694780444871e-05 8.302888148013225e-05 0.00010191692256513758 9.528562226178287e-05 0.9280509889904272 -0.20817278980404708 0.8229146029512732 -0.4114306098580435
455000000.0 0.8729572108893032 -0.33572292050842817 0.9466742094875964 -0.16698477065660455 7.625512136559095e-05 8.254179036701269e-05 0.00010265543829283184 9.773869489994425e-05
 0.9466742094875964 -0.16698477065660455 0.8729572108893032 -0.33572292050842817 7.625512136559095e-05 8.254179036701269e-05 0.0001021733562581958 9.556539186510827e-05
 7.625512136559095e-05 8.254179036701269e-05 7.625512136559095e-05 8.254179036701269e-05 0.8226671757413052 -0.4122974051668487 0.9280085847790431 -0.2086214705095286
 7.939640749300609e-05 8.323642287459026e-05 0.0001021733562581958 9.556539186510827e-05 0.9280085847790431 -0.2086214705095286 0.8226671757413052 -0.4122974051668487
456000000.0 0.8728264007262644 -0.3364462857394225 0.946664986540795 -0.16734732935352054 7.648150444678137e-05 8.278899622446129e-05 0.00010292937060180141 9.799618898430789e-05
 0.946664986540795 -0.16734732935352054 0.8728264007262644 -0.3364462857394225 7.648150444678137e-05 8.278899622446129e-05 0.00010249020390729147 9.587588888640582e-05
 7.648150444678137e-05 8.278899622446129e-05 7.648150444678137e-05 8.278899622446129e-05 0.822421497495703 -0.4131745457859902 0.9279675742938028 -0.20907520616636185
 7.961164324963233e-05 8.347195175548119e-05 0.00010249020390729147 9.587588888640582e-05 0.9279675742938028 -0.20907520616636185 0.822421497495703 -0.4131745457859902
457000000.0 0.8726974244434305 -0.337178004088232 0.9466569892748898 -0.1677139286226832 7.675669035980979e-05 8.305980035155442e-05 0.00010326321129854865 9.828251964887015e-05
 0.9466569892748898 -0.1677139286226832 0.8726974244434305 -0.337178004088232 7.675669035980979e-05 8.305980035155442e-05 0.00010286925460227094 9.621299237731384e-05
 7.675669035980979e-05 8.305980035155442e-05 7.675669035980979e-05 8.305980035155442e-05 0.822176930764242 -0.41406216490482833 0.9279276538551002 -0.20953408380457453
 7.987430444040752e-05 8.373232839917721e-05 0.00010286925460227094 9.621299237731384e-05 0.9279276538551002 -0.20953408380457453 0.822176930764242 -0.41406216490482833
458000000.0 0.8725697777349692 -0.3379182011605153 0.9466499783360581 -0.1680846414691011 7.708206165665391e-05 8.335091499182575e-05 0.00010365864086178179 9.859361250770781e-05
 0.9466499783360581 -0.1680846414691011 0.8725697777349692 -0.3379182011605153 7.708206165665391e-05 8.335091499182575e-05 0.00010331205207848561 9.657250306835334e-05
 7.708206165665391e-05 8.335091499182575e-05 7.708206165665391e-05 8.335091499182575e-05 0.821932832571598 -0.4149603594642729 0.9278885158635942 -0.20999817320187308
 8.018585215050664e-05 8.401433790993147e-05 0.00010331205207848561 9.657250306835334e-05 0.9278885158635942 -0.20999817320187308 0.821932832571598 -0.4149603594642729
459000000.0 0.8724429507972723 -0.3386669739822913 0.9466437110437289 -0.1684595273555535 7.745880615510762e-05 8.365899226756398e-05 0.00010411709850894093 9.892532051615918e-05
 0.9466437110437289 -0.1684595273555535 0.8724429507972723 -0.3386669739822913 7.745880615510762e-05 8.365899226756398e-05 0.00010381989232604402 9.695015691670498e-05
 7.745880615510762e-05 8.365899226756398e-05 7.745880615510762e-05 8.365899226756398e-05 0.8216885563625803 -0.41586919002951495 0.9278498497269843 -0.2104675267561423
 8.05475566200962e-05 8.431470073060191e-05 0.00010381989232604402 9.695015691670498e-05 0.9278498497269843 -0.2104675267561423 0.8216885563625803 -0.41586919002951495
460000000.0 0.8723164298578441 -0.33942439083845244 0.9466379421147347 -0.1688386320894717 7.78879151448432e-05 8.398063486844012e-05 0.00010463978002637548 9.927343717341108e-05
 0.9466379421147347 -0.1688386320894717 0.8723164298578441 -0.33942439083845244 7.78879151448432e-05 8.398063486844012e-05 0.00010439382185358341 9.7341638612392e-05
 7.78879151448432e-05 8.398063486844012e-05 7.78879151448432e-05 8.398063486844012e-05 0.8214434539375679 -0.4167886807532688 0.9278113427850673 -0.21094217940125692
 8.096049519932759e-05 8.463008314625978e-05 0.00010439382185358341 9.7341638612392e-05 0.9278113427850673 -0.21094217940125692 0.8214434539375679 -0.4167886807532688
461000000.0 0.8721896986993789 -0.34019049118211653 0.9466324243867233 -0.16922198774341726 7.837018210470996e-05 8.43124067033951e-05 0.00010522763622603197 9.963370968476636e-05
 0.9466324243867233 -0.16922198774341726 0.8721896986993789 -0.34019049118211653 7.837018210470996e-05 8.43124067033951e-05 0.00010503463658876968 9.774259502291955e-05
 7.837018210470996e-05 8.43124067033951e-05 7.837018210470996e-05 8.43124067033951e-05 0.8211968773757137 -0.4177188194274641 0.9277726812318903 -0.21142214856528757
 8.142555080817667e-05 8.49571077635416e-05 0.00010503463658876968 9.774259502291955e-05 0.9277726812318903 -0.21142214856528757 0.8211968773757137 -0.4177188194274641
462000000.0 0.8720622401771609 -0.3409652856132833 0.9466269095399584 -0.1696096126084508 7.890620191723378e-05 8.465084350074e-05 0.00010588137201261075 0.00010000185206576797
 0.9466269095399584 -0.1696096126084508 0.8720622401771609 -0.3409652856132833 7.890620191723378e-05 8.465084350074e-05 0.00010574288139879094 9.814864855870033e-05
 7.890620191723378e-05 8.465084350074e-05 7.890620191723378e-05 8.465084350074e-05 0.8209481809437424 -0.4186595576215086 0.9277335510339326 -0.2119074341702609
 8.194341088753133e-05 8.52923639506183e-05 0.00010574288139879094 9.814864855870033e-05 0.9277335510339326 -0.2119074341702609 0.8209481809437424 -0.4186595576215086
463000000.0 0.8719335377281008 -0.3417487559254184 0.9466211488166869 -0.17000151117977133 7.949637056718643e-05 8.49924633431859e-05 0.00010660144604634849 0.00010037355817234305
 0.9466211488166869 -0.17000151117977133 0.8719335377281008 -0.3417487559254184 7.949637056718643e-05 8.49924633431859e-05 0.00010651885021539112 9.855541044355641e-05
 7.949637056718643e-05 8.49924633431859e-05 7.949637056718643e-05 8.49924633431859e-05 0.8206967229883367 -0.4196108109054669 0.9276936388433495 -0.2123980186727546
 8.251456682877955e-05 8.563241822442583e-05 0.00010651885021539112 9.855541044355641e-05 0.9276936388433495 -0.2123980186727546 0.8206967229883367 -0.4196108109054669
464000000.0 0.8718030768698826 -0.34254085521875327 0.9466148937373647 -0.17039767417407073 8.014088531215806e-05 8.533377712603302e-05 0.00010738807098795573 0.00010074451464280749
 0.9466148937373647 -0.17039767417407073 0.8718030768698826 -0.34254085521875327 8.014088531215806e-05 8.533377712603302e-05 0.00010736258675043315 9.89584938762254e-05
 8.014088531215806e-05 8.533377712603302e-05 8.014088531215806e-05 8.533377712603302e-05 0.8204418678102583 -0.4205724591567178 0.9276526329053884 -0.2128938671446857
 8.313931387017373e-05 8.597382457333778e-05 0.00010736258675043315 9.89584938762254e-05 0.9276526329053884 -0.2128938671446857 0.8204418678102583 -0.4205724591567178
465000000.0 0.8716703466888038 -0.3433415080792753 0.946607896813066 -0.170798078578149 8.083974531426525e-05 8.567129892800237e-05 0.00010824121431375439 0.00010111041373891543
 0.946607896813066 -0.170798078578149 0.8716703466888038 -0.3433415080792753 8.083974531426525e-05 8.567129892800237e-05 0.00010827388578955798 9.93535270700949e-05
 8.083974531426525e-05 8.567129892800237e-05 8.083974531426525e-05 8.567129892800237e-05 0.8201829875184491 -0.421544346948896 0.9276102239591371 -0.21339492739379426
 8.381775144940571e-05 8.631313470473521e-05 0.00010827388578955798 9.93535270700949e-05 0.9276102239591371 -0.21339492739379426 0.8201829875184491 -0.421544346948896
466000000.0 0.8715348413149713 -0.34415061082257975 0.9465999122534584 -0.17120268772842245 8.159275272341821e-05 8.60015562851724e-05 0.00010916059969066772 0.00010146696607414919
 0.9465999122534584 -0.17120268772842245 0.8715348413149713 -0.34415061082257975 8.159275272341821e-05 8.60015562851724e-05 0.00010925229505316327 9.973616615934392e-05
 8.159275272341821e-05 8.60015562851724e-05 8.159275272341821e-05 8.60015562851724e-05 0.8199194638623762 -0.42252628402215864 0.9275661061307977 -0.21390113012342607
 8.454978400308602e-05 8.664690820794106e-05 0.00010925229505316327 9.973616615934392e-05 0.9275661061307977 -0.21390113012342607 0.8199194638623762 -0.42252628402215864
467000000.0 0.8713960613835467 -0.3449680318019338 0.9465906966697432 -0.17161145142104797 8.23995142039224e-05 8.632110035918982e-05 0.00011014570890237472 0.00010180991321811743
 0.9465906966697432 -0.17161145142104797 0.8713960613835467 -0.3449680318019338 8.23995142039224e-05 8.632110035918982e-05 0.00011029711761562318 0.00010010210796027848
 8.23995142039224e-05 8.632110035918982e-05 8.23995142039224e-05 8.632110035918982e-05 0.8196506900409185 -0.4235180458340498 0.927519977818679 -0.21441238913132585
 8.533512220514792e-05 8.697172262372586e-05 0.00011029711761562318 0.00010010210796027848 0.927519977818679 -0.21441238913132585 0.8196506900409185 -0.4235180458340498
468000000.0 0.8712535154807366 -0.345793611780112 0.9465800097719607 -0.17202430605249003 8.325944289756767e-05 8.662651599135959e-05 0.00011119578431961137 0.00010213504016626616
 0.9465800097719607 -0.17202430605249003 0.8712535154807366 -0.345793611780112 8.325944289756767e-05 8.662651599135959e-05 0.00011140741487536236 0.00010044710257691691
 8.325944289756767e-05 8.662651599135959e-05 8.325944289756767e-05 8.662651599135959e-05 0.8193760724859899 -0.42451937419046004 0.9274715425690839 -0.21492860154728818
 8.617328463755523e-05 8.728418341206678e-05 0.00011140741487536236 0.00010044710257691691 0.9274715425690839 -0.21492860154728818 0.8193760724859899 -0.42451937419046004
469000000.0 0.871106721573177 -0.34662716436473245 0.9465676150600449 -0.17244117479043655 8.417176081772838e-05 8.69144316343761e-05 0.00011230983190923913 0.00010243818766411126
 0.9465676150600449 -0.17244117479043655 0.871106721573177 -0.34662716436473245 8.417176081772838e-05 8.69144316343761e-05 0.00011258201007005014 0.00010076696583981281
 8.417176081772838e-05 8.69144316343761e-05 8.417176081772838e-05 8.69144316343761e-05 0.819095032619045 -0.42552997795638664 0.9274205099422325 -0.21544964810959952
 8.706359988805486e-05 8.75809338100393e-05 0.00011258201007005014 0.00010076696583981281 0.9274205099422325 -0.21544964810959952 0.819095032619045 -0.42552997795638664
470000000.0 0.8709552084192888 -0.347468476507006 0.9465532805079867 -0.17286196777507334 8.513550167032585e-05 8.718152915335947e-05 0.00011348662477826637 0.00010271526437488766
 0.9465532805079867 -0.17286196777507334 0.8709552084192888 -0.347468476507006 8.513550167032585e-05 8.718152915335947e-05 0.00011381949233274043 0.00010105759156671634
 8.513550167032585e-05 8.718152915335947e-05 8.513550167032585e-05 8.718152915335947e-05 0.8188070085784284 -0.4265495338463831 0.927366596367286 -0.21597539348031136
 8.800520907103847e-05 8.785866457166534e-05 0.00011381949233274043 0.00010105759156671634 0.927366596367286 -0.21597539348031136 0.8188070085784284 -0.4265495338463831
471000000.0 0.8707985169610577 -0.34831730906395914 0.9465367792404019 -0.17328658235078684 8.614951409876137e-05 8.742455348749711e-05 0.0001147247072504654 0.00010296225887888507
 0.9465367792404019 -0.17328658235078684 0.8707985169610577 -0.34831730906395914 8.614951409876137e-05 8.742455348749711e-05 0.00011511822128622245 0.00010131496363297421
 8.614951409876137e-05 8.742455348749711e-05 8.614951409876137e-05 8.742455348749711e-05 0.8185114569153776 -0.42757768729474166 0.9273095259854685 -0.21650568659946748
 8.899706876884266e-05 8.811412358122138e-05 0.00011511822128622245 0.00010131496363297421 0.9273095259854685 -0.21650568659946748 0.8185114569153776 -0.42757768729474166
472000000.0 0.8706362016945614 -0.34917339742433007 0.9465178902007427 -0.17371490332845432 8.721246535107918e-05 8.764032216299089e-05 0.00011602239947453346 0.00010317525149182652
 0.9465178902007427 -0.17371490332845432 0.8706362016945614 -0.34917339742433007 8.721246535107918e-05 8.764032216299089e-05 0.00011647633217412551 0.00010153516783858416
 8.721246535107918e-05 8.764032216299089e-05 8.721246535107918e-05 8.764032216299089e-05 0.8182078542562542 -0.42861405340558895 0.9272490314801699 -0.21704036107848562
 9.003795439198011e-05 8.834412533095282e-05 0.00011647633217412551 0.00010153516783858416 0.9272490314801699 -0.21704036107848562 0.8182078542562542 -0.42861405340558895
473000000.0 0.8704678320173677 -0.3500364521984495 0.9464963988102989 -0.17414680327852658 8.832284536864157e-05 8.782573464717864e-05 0.00011737780256387255 0.0001033504258884638
 0.9464963988102989 -0.17414680327852658 0.8704678320173677 -0.3500364521984495 8.832284536864157e-05 8.782573464717864e-05 0.00011789174152839888 0.0001017144035575672
 8.832284536864157e-05 8.782573464717864e-05 8.832284536864157e-05 8.782573464717864e-05 0.8178956989283277 -0.4296582179831479 0.9271848548927999 -0.21757923563293866
 9.112646395784008e-05 8.854556025335034e-05 0.00011789174152839888 0.0001017144035575672 0.9271848548927999 -0.21757923563293866 0.8178956989283277 -0.4296582179831479
474000000.0 0.8702929935507542 -0.350906159972498 0.9464720976170553 -0.1745821428551709 8.947897129645443e-05 8.797778153265626e-05 0.00011878880426896992 0.00010348408051612916
 0.9464720976170553 -0.1745821428551709 0.8702929935507542 -0.350906159972498 8.947897129645443e-05 8.797778153265626e-05 0.0001193621533736379 0.00010184899515382252
 8.947897129645443e-05 8.797778153265626e-05 8.947897129645443e-05 8.797778153265626e-05 0.817574512546167 -0.4307097386424857 0.927116748423025 -0.21812211455502803
 9.226102228828415e-05 8.871540389714288e-05 0.0001193621533736379 0.00010184899515382252 0.927116748423025 -0.21812211455502803 0.817574512546167 -0.4307097386424857
475000000.0 0.8701112894344363 -0.35178218412758394 0.9464447869333398 -0.17502077115175405 9.067899241595728e-05 8.809355353899665e-05 0.00012025308518402032 0.00010357263978133935
 0.9464447869333398 -0.17502077115175405 0.8701112894344363 -0.35178218412758394 9.067899241595728e-05 8.809355353899665e-05 0.00012088506596931831 0.00010193540314592812
 9.067899241595728e-05 8.809355353899665e-05 9.067899241595728e-05 8.809355353899665e-05 0.817243841555376 -0.43176814600105207 0.9270444752118773 -0.21866878822605132
 9.343988562727415e-05 8.885072593496456e-05 0.00012088506596931831 0.00010193540314592812 0.9270444752118773 -0.21866878822605132 0.817243841555376 -0.43176814600105207
476000000.0 0.8699223415912739 -0.35266416572409665 0.9464142754611004 -0.17546252608797921 9.192089550155513e-05 8.817025031826302e-05 0.00012176812548982099 0.00010361266499070504
 0.9464142754611004 -0.17546252608797921 0.8699223415912739 -0.35266416572409665 9.192089550155513e-05 8.817025031826302e-05 0.00012245777909130086 0.00010197023510145922
 9.192089550155513e-05 8.817025031826302e-05 9.192089550155513e-05 8.817025031826302e-05 0.8169032587301005 -0.43283294495128133 0.9269678101060559 -0.2192190336691568
 9.466114668018066e-05 8.894869898928865e-05 0.00012245777909130086 0.00010197023510145922 0.9269678101060559 -0.2192190336691568 0.8169032587301005 -0.43283294495128133
477000000.0 0.8697257919591425 -0.3535517244517731 0.946380380903505 -0.1759072348289811 9.3202510602402e-05 8.820518904897455e-05 0.00012333121223505073 0.00010360086502541032
 0.946380380903505 -0.1759072348289811 0.8697257919591425 -0.3535517244517731 9.3202510602402e-05 8.820518904897455e-05 0.0001240774018539613 0.00010195025623936702
 9.3202510602402e-05 8.820518904897455e-05 9.3202510602402e-05 8.820518904897455e-05 0.8165523646203977 -0.433903616014427 0.9268865404015902 -0.2197726151426569
 9.592274007670473e-05 8.90066072617079e-05 0.0001240774018539613 0.00010195025623936702 0.9268865404015902 -0.2197726151426569 0.8165523646203977 -0.433903616014427
478000000.0 0.8695213036868901 -0.35444445964584714 0.9463429305614263 -0.17635471423666377 9.452151725092601e-05 8.819581280153103e-05 0.0001249394471578098 0.0001035341067264138
 0.9463429305614263 -0.17635471423666377 0.8695213036868901 -0.35444445964584714 9.452151725092601e-05 8.819581280153103e-05 0.00012574086107395302 0.00010187239971682079
 9.452151725092601e-05 8.819581280153103e-05 9.452151725092601e-05 8.819581280153103e-05 0.8161907889452156 -0.4349796167756507 0.9268004665648467 -0.22032928477409952
 9.722244825938341e-05 8.902185494900699e-05 0.00012574086107395302 0.00010187239971682079 0.9268004665648467 -0.22032928477409952 0.8161907889452156 -0.4349796167756507
479000000.0 0.8693085622910144 -0.35534195136954255 0.946301761913245 -0.17680477135351375 9.587545109930223e-05 8.813969865636707e-05 0.00012658975504871678 0.00010340942496533464
 0.946301761913245 -0.17680477135351375 0.8693085622910144 -0.35534195136954255 9.587545109930223e-05 8.813969865636707e-05 0.00012744491017592152 0.00010173377657471016
 9.587545109930223e-05 8.813969865636707e-05 9.587545109930223e-05 8.813969865636707e-05 0.8158181919263947 -0.4360603834001786 0.9267094029287044 -0.22088878323522868
 9.855790779943346e-05 8.89919744277551e-05 0.00012744491017592152 0.00010173377657471016 0.9267094029287044 -0.22088878323522868 0.8158181919263947 -0.4360603834001786
480000000.0 0.8690872767694082 -0.3562437615630272 0.9462567231762457 -0.1772572039190881 9.726171098451326e-05 8.803456555431963e-05 0.00012827889265592756 0.00010322403237375369
 0.9462567231762457 -0.1772572039190881 0.8690872767694082 -0.3562437615630272 9.726171098451326e-05 8.803456555431963e-05 0.0001291861386394291 0.00010153168531377388
 9.726171098451326e-05 8.803456555431963e-05 9.726171098451326e-05 8.803456555431963e-05 0.8154342655587753 -0.43714533223008195 0.9266131783615326 -0.22145084045784372
 9.992661614118961e-05 8.891463418735898e-05 0.0001291861386394291 0.00010153168531377388 0.9266131783615326 -0.22145084045784372 0.8154342655587753 -0.43714533223008195
481000000.0 0.8688571806682502 -0.35714943525873943 0.9462076738477503 -0.17771180091924876 9.867756642177984e-05 8.787828185689138e-05 0.00013000345813113699 0.00010297532870144243
 0.9462076738477503 -0.17771180091924876 0.8688571806682502 -0.35714943525873943 9.867756642177984e-05 8.787828185689138e-05 0.00013096098198492041 0.00010126362107111444
 9.867756642177984e-05 8.787828185689138e-05 9.867756642177984e-05 8.787828185689138e-05 0.8150387348111691 -0.4382338614609111 0.9265116369064567 -0.22201517639042734
 0.00010132593877561165 8.878764648971768e-05 0.00013096098198492041 0.00010126362107111444 0.9265116369064567 -0.22201517639042734 0.8150387348111691 -0.4382338614609111
482000000.0 0.868618033097837 -0.35805850186276306 0.9461544852239956 -0.1781683431681485 0.00010012016552498899 8.766887259230558e-05 0.0001317599010139547 0.0001026609097718536
 0.9461544852239956 -0.1781683431681485 0.868618033097837 -0.35805850186276306 0.00010012016552498899 8.766887259230558e-05 0.00013276573229475234 0.00010092728436471232
 0.00010012016552498899 8.766887259230558e-05 0.00010012016552498899 8.766887259230558e-05 0.8146313587526615 -0.43932535289704794 0.926404638388222 -0.22258150179525849
 0.0001027531168422578 8.860897473181608e-05 0.00013276573229475234 0.00010092728436471232 0.926404638388222 -0.22258150179525849 0.8146313587526615 -0.43932535289704794
483000000.0 0.8683696196929019 -0.3589704765016325 0.9460970408946279 -0.17862660392282195 0.00010158654335129302 8.740452636152145e-05 0.00013354453274999942 0.00010227857600113646
 0.9460970408946279 -0.17862660392282195 0.8683696196929019 -0.3589704765016325 0.00010158654335129302 8.740452636152145e-05 0.00013459654926312994 0.00010052058937153036
 0.00010158654335129302 8.740452636152145e-05 0.00010158654335129302 8.740452636152145e-05 0.814211931598453 -0.44041917378419765 0.9262920589848334 -0.22314951908550532
 0.00010420527515774737 8.837674048584854e-05 0.00013459654926312994 0.00010052058937153036 0.9262920589848334 -0.22314951908550532 0.814211931598453 -0.44041917378419765
484000000.0 0.8681117535127328 -0.35988486143361986 0.9460352372105526 -0.17908634953007976 0.0001030736306652951 8.70836018767416e-05 0.00013535353773564245 0.0001018263404450031
 0.9460352372105526 -0.17908634953007976 0.8681117535127328 -0.35988486143361986 0.0001030736306652951 8.70836018767416e-05 0.00013644947176623818 0.00010004167170292944
 0.0001030736306652951 8.70836018767416e-05 0.0001030736306652951 8.70836018767416e-05 0.813780283669192 -0.44151467871697303 0.9261737917609939 -0.2237189232016025
 0.00010567943066706061 8.808923018978987e-05 0.00013644947176623818 0.00010004167170292944 0.9261737917609939 -0.2237189232016025 0.813780283669192 -0.44151467871697303
485000000.0 0.8678442758761847 -0.36080114752317494 0.9459689837227906 -0.1795473401052547 0.00010457826311618543 8.670463410344117e-05 0.00013718298487955342 0.00010130243633604038
 0.9459689837227906 -0.1795473401052547 0.8678442758761847 -0.36080114752317494 0.00010457826311618543 8.670463410344117e-05 0.00013832042994094435 9.948889563946852e-05
 0.00010457826311618543 8.670463410344117e-05 0.00010457826311618543 8.670463410344117e-05 0.8133362822575966 -0.4426112116189749 0.9260497471602759 -0.2242894025259445
 0.00010717250131205381 8.774490145978756e-05 0.00013832042994094435 9.948889563946852e-05 0.9260497471602759 -0.2242894025259445 0.8133362822575966 -0.4426112116189749
486000000.0 0.8675670571265208 -0.36171881577676845 0.9458982035898647 -0.18000933024212296 0.00010609719081885487 8.626633997561525e-05 0.00013902883966808473 0.00010070532407256176
 0.9458982035898647 -0.18000933024212296 0.8675670571265208 -0.36171881577676845 0.00010609719081885487 8.626633997561525e-05 0.00014020525775719695 9.886086078576906e-05
 0.00010609719081885487 8.626633997561525e-05 0.00010609719081885487 8.626633997561525e-05 0.8128798323959961 -0.44370810779220127 0.925919853452848 -0.2248606398346611
 0.00010868131530930976 8.734238899435789e-05 0.00014020525775719695 9.886086078576906e-05 0.925919853452848 -0.2248606398346611 0.8128798323959961 -0.44370810779220127
487000000.0 0.867279997320866 -0.36263733893793304 0.9458228339511834 -0.18047206975313035 0.0001076270883274028 8.576762365281787e-05 0.00014088697671808324 0.00010003369761888637
 0.9458228339511834 -0.18047206975313035 0.867279997320866 -0.36263733893793304 0.0001076270883274028 8.576762365281787e-05 0.0001420997060656725 9.815640810503852e-05
 0.0001076270883274028 8.576762365281787e-05 0.0001076270883274028 8.576762365281787e-05 0.8124108775183656 -0.4448046960319965 0.9257840571355281 -0.2254323132849541
 0.00011020262082691344 8.688051003918037e-05 0.0001420997060656725 9.815640810503852e-05 0.9257840571355281 -0.2254323132849541 0.8124108775183656 -0.4448046960319965
488000000.0 0.8669830268389724 -0.36355618313879334 0.9457428262638181 -0.18093530443881067 0.00010916456498658913 8.520758128669082e-05 0.00014275319279697564 9.928649027606183e-05
 0.9457428262638181 -0.18093530443881067 0.8669830268389724 -0.36355618313879334 0.00010916456498658913 8.520758128669082e-05 0.0001439994560983592 9.737462529212164e-05
 0.00010916456498658913 8.520758128669082e-05 0.00010916456498658913 8.520758128669082e-05 0.8119294000103948 -0.4459003008030792 0.9256423232808824 -0.22600409743614197
 0.00011173309604694776 8.635826938032962e-05 0.0001439994560983592 9.737462529212164e-05 0.9256423232808824 -0.22600409743614197 0.8119294000103948 -0.4459003008030792
489000000.0 0.8666761069059505 -0.3644748096048616 0.9456581466000286 -0.18139877688504083 0.00011070617564368735 8.458550526408843e-05 0.00014462322028596837 9.846287978155253e-05
 0.9456581466000286 -0.18139877688504083 0.8666761069059505 -0.3644748096048616 0.00011070617564368735 8.458550526408843e-05 0.00014590013339565105 9.651485144361447e-05
 0.00011070617564368735 8.458550526408843e-05 0.00011070617564368735 8.458550526408843e-05 0.8114354216411975 -0.44699424447152275 0.9254946358321017 -0.22657566430224965
 0.00011326935959748348 8.577486383310387e-05 0.00014590013339565105 9.651485144361447e-05 0.9254946358321017 -0.22657566430224965 0.8114354216411975 -0.44699424447152275
490000000.0 0.866359230023635 -0.36539267640930306 0.9455687759028885 -0.18186222728649737 0.00011224843169989381 8.390088789363258e-05 0.00014649274105796078 9.756229269634642e-05
 0.9455687759028885 -0.18186222728649737 0.866359230023635 -0.36539267640930306 0.00011224843169989381 8.390088789363258e-05 0.000147797322129193 9.557668098368721e-05
 0.00011224843169989381 8.390088789363258e-05 0.00011224843169989381 8.390088789363258e-05 0.8109290038703934 -0.44808584958682274 0.925340997840406 -0.2271466844336031
 0.00011480798133459169 8.512968619323433e-05 0.000147797322129193 9.557668098368721e-05 0.925340997840406 -0.2271466844336031 0.8109290038703934 -0.44808584958682274
491000000.0 0.86603242030532 -0.36630924027232026 0.9454747101973745 -0.18232539429442327 0.00011378781247698378 8.315342450261123e-05 0.000148357400737362 9.65844080383168e-05
 0.9454747101973745 -0.18232539429442327 0.86603242030532 -0.36630924027232026 0.00011378781247698378 8.315342450261123e-05 0.0001496865797852239 9.455996680484242e-05
 0.00011378781247698378 8.315342450261123e-05 0.00011378781247698378 8.315342450261123e-05 0.8104102480245041 -0.44917444120748584 0.9251814316418031 -0.2277168280245646
 0.00011634549345150284 8.44223286172291e-05 0.0001496865797852239 9.455996680484242e-05 0.9251814316418031 -0.2277168280245646 0.8104102480245041 -0.44917444120748584
492000000.0 0.865695733708743 -0.36722395840070643 0.9453759607543246 -0.18278801588651084 0.00011532077687129662 8.234301591159278e-05 0.00015021282330443783 9.552916012155886e-05
 0.9453759607543246 -0.18278801588651084 0.865695733708743 -0.36722395840070643 0.00011532077687129662 8.234301591159278e-05 0.00015156345216854204 9.34648225839315e-05
 0.00011532077687129662 8.234301591159278e-05 0.00011532077687129662 8.234301591159278e-05 0.8098792953369011 -0.450259349262827 0.9250159789701294 -0.22828576604415174
 0.00011787840188846638 8.36525853989428e-05 0.00015156345216854204 9.34648225839315e-05 0.9250159789701294 -0.22828576604415174 0.8098792953369011 -0.450259349262827
493000000.0 0.8653492581623868 -0.368136290362007 0.9452725542047509 -0.18324983025642574 0.00011684377526344187 8.146977025499701e-05 0.00015205462600219482 9.43967405628231e-05
 0.9452725542047509 -0.18324983025642574 0.8653492581623868 -0.368136290362007 0.00011684377526344187 8.146977025499701e-05 0.0001534234886825544 9.229162423537863e-05
 0.00011684377526344187 8.146977025499701e-05 0.00011684377526344187 8.146977025499701e-05 0.8093363268459244 -0.45133991094294146 0.9248447010034706 -0.2288531713859449
 0.00011940319801321014 8.282045511020116e-05 0.0001534234886825544 9.229162423537863e-05 0.9248447010034706 -0.2288531713859449 0.8093363268459244 -0.45133991094294146
494000000.0 0.8649931135804568 -0.3690456999871637 0.9451645326021068 -0.18371057672019758 0.00011835326164837974 8.053400411715583e-05 0.0001538784344991537 9.318759941810654e-05
 0.9451645326021068 -0.18371057672019758 0.8649931135804568 -0.3690456999871637 0.00011835326164837974 8.053400411715583e-05 0.00015526225783619877 9.104101046574342e-05
 0.00011835326164837974 8.053400411715583e-05 0.00011835326164837974 8.053400411715583e-05 0.8087815631462568 -0.4524154731081093 0.9246676783412215 -0.22941872003330244
 0.00012091637053817964 8.192614207446396e-05 0.00015526225783619877 9.104101046574342e-05 0.9246676783412215 -0.22941872003330244 0.8087815631462568 -0.4524154731081093
495000000.0 0.8646274517622157 -0.3699516572948863 0.9450519534302432 -0.1841699966364147 0.00011984570594678827 7.953624295513713e-05 0.00015567989825676203 9.190244541497677e-05
 0.9450519534302432 -0.1841699966364147 0.8646274517622157 -0.3699516572948863 0.00011984570594678827 7.953624295513713e-05 0.00015707536292392709 8.971388239650915e-05
 0.00011984570594678827 7.953624295513713e-05 0.00011984570594678827 7.953624295513713e-05 0.8082152639892057 -0.4534853947081947 0.9244850109093256 -0.22998209223556773
 0.00012241441763700175 8.097005714410613e-05 0.00015707536292392709 8.971388239650915e-05 0.9244850109093256 -0.22998209223556773 0.8082152639892057 -0.4534853947081947
496000000.0 0.8642524561717961 -0.3708536404304583 0.9449348895549853 -0.18462783433687208 0.00012131760645495218 7.847722078180014e-05 0.00015745470604570274 9.054224524927107e-05
 0.9449348895549853 -0.18462783433687208 0.8642524561717961 -0.3708536404304583 0.00012131760645495218 7.847722078180014e-05 0.0001588584578204796 8.831140222531202e-05
 0.00012131760645495218 7.847722078180014e-05 0.00012131760645495218 7.847722078180014e-05 0.8076377277281883 -0.4545490492019621 0.9242968177914713 -0.23054297369059948
 0.00012389385921893344 7.995281775394068e-05 0.0001588584578204796 8.831140222531202e-05 0.9242968177914713 -0.23054297369059948 0.8076377277281883 -0.4545490492019621
497000000.0 0.8638683415950795 -0.37175113761110884 0.9448134291174489 -0.18508383806404216 0.0001227655023868376 7.735787908520206e-05 0.00015919860155104874 8.910822191845601e-05
 0.9448134291174489 -0.18508383806404216 0.8638683415950795 -0.37175113761110884 0.0001227655023868376 7.735787908520206e-05 0.00016060726282792812 8.683499089972598e-05
 0.0001227655023868376 7.735787908520206e-05 0.0001227655023868376 7.735787908520206e-05 0.8070492906064491 -0.45560582696562124 0.9241032369843961 -0.23110105672865228
 0.00012535124931645843 7.887524722610571e-05 0.00016060726282792812 8.683499089972598e-05 0.9241032369843961 -0.23110105672865228 0.8070492906064491 -0.45560582696562124
498000000.0 0.8634753536708037 -0.37264364906958414 0.9446876753675045 -0.18553776091148536 0.00012418598645861474 7.617936496358911e-05 0.00016090739900215365 8.760185206813696e-05
 0.9446876753675045 -0.18553776091148536 0.8634753536708037 -0.37264364906958414 0.00012418598645861474 7.617936496358911e-05 0.00016231758050849445 8.528632478218275e-05
 0.00012418598645861474 7.617936496358911e-05 0.00012418598645861474 7.617936496358911e-05 0.8064503258848632 -0.45665513767937393 0.9239044250757722 -0.23165604149231991
 0.00012678318853775474 7.773837330439513e-05 0.00016231758050849445 8.528632478218275e-05 0.9239044250757722 -0.23165604149231991 0.8064503258848632 -0.45665513767937393
499000000.0 0.8630737682936915 -0.3735306889870768 0.9445577464360435 -0.1859893617630566 0.0001255757174627111 7.494302845876737e-05 0.00016257699875943371 8.602486233295331e-05
 0.9445577464360435 -0.1859893617630566 0.8630737682936915 -0.3735306889870768 0.0001255757174627111 7.494302845876737e-05 0.00016398531143303204 8.366733128961355e-05
 0.0001255757174627111 7.494302845876737e-05 0.0001255757174627111 7.494302845876737e-05 0.8058412428085727 -0.457696412680255 0.9237005568435932 -0.23220763710699843
 0.0001281863365325154 7.654342589951871e-05 0.00016398531143303204 8.366733128961355e-05 0.9237005568435932 -0.23220763710699843 0.8058412428085727 -0.457696412680255
500000000.0 0.8626638908880743 -0.37441178740625203 0.9444237750450458 -0.18643840622656438 0.00012693143277558698 7.365041907463753e-05 0.00016420340278686517 8.43792246583565e-05
 0.9444237750450458 -0.18643840622656438 0.8626638908880743 -0.37441178740625203 0.00012693143277558698 7.365041907463753e-05 0.00016560646977187255 8.19801834969109e-05
 0.00012693143277558698 7.365041907463753e-05 0.00012693143277558698 7.365041907463753e-05 0.8052224854121738 -0.4587291072691766 0.9234918247764122 -0.23275556283610332
 0.0001295574244166394 7.529183403061305e-05 0.00016560646977187255 8.19801834969109e-05 0.9234918247764122 -0.23275556283610332 0.8052224854121738 -0.4587291072691766
