# HZ S RI R 50
7.00000000000000000000e+07 -5.15411965712563646669e-01 +6.71077525681437747629e-01 +4.02179761903894206210e-01 -9.15652441831107832826e-01 +2.40362650061409256763e-03 +5.21260255910945165259e-04 +8.43399372928884782930e-01 -5.40663434864997571871e-01
7.10000000000000000000e+07 -4.86122152127698714530e-01 +6.75649931625311950256e-01 +3.99399008161039181797e-01 -1.02791602623650035753e+00 +2.70714342319241726975e-03 +4.76209936412299271458e-04 +8.26811011680354646103e-01 -5.66538605064684785972e-01
7.20000000000000000000e+07 -4.55573339167201774025e-01 +6.78721312408785193426e-01 +3.89070124927763660860e-01 -1.15223809369551188908e+00 +3.04463625002857757318e-03 +4.07084617117763839650e-04 +8.08507117234454564247e-01 -5.93263849009004418100e-01
7.30000000000000000000e+07 -4.23807847408233739905e-01 +6.80106417242392180533e-01 +3.69249924574251653375e-01 -1.28953773719817488264e+00 +3.41879118669281140130e-03 +3.07893552841279321414e-04 +7.88247729704001920403e-01 -6.20890782213077252472e-01
7.40000000000000000000e+07 -3.90888696059345286393e-01 +6.79609895630908567021e-01 +3.37608495606725789173e-01 -1.44069063525293938888e+00 +3.83214967309044446386e-03 +1.71427005247411050337e-04 +7.65748981693821773042e-01 -6.49463753045831593269e-01
7.50000000000000000000e+07 -3.56902327994507495568e-01 +6.77027484739772367206e-01 +2.91360687064986079164e-01 -1.60648024947571022025e+00 +4.28694870713492229286e-03 -1.09643918996915439024e-05 +7.40674254601498827100e-01 -6.79014468016322925159e-01
7.60000000000000000000e+07 -3.21961425588427108124e-01 +6.72147463825818358707e-01 +2.27186877282981980475e-01 -1.78752978953768404402e+00 +4.78489712990313662000e-03 -2.49624278907622631357e-04 +7.12623597639602812670e-01 -7.09554161663817350991e-01
7.70000000000000000000e+07 -2.86207843892635982463e-01 +6.64752330882115716193e-01 +1.41142190097357456136e-01 -1.98420779979952754957e+00 +5.32686417610197041062e-03 -5.56881120214527090828e-04 +6.81121210100834262313e-01 -7.41062272322072224107e-01
7.80000000000000000000e+07 -2.49815747176395125395e-01 +6.54620640226555416952e-01 +2.85541212783660403041e-02 -2.19649735908404775131e+00 +5.91244733995664739634e-03 -9.47373493016989264709e-04 +6.45600898791086397210e-01 -7.73470154468337889320e-01
7.90000000000000000000e+07 -2.12995129747327455183e-01 +6.41528941463105573106e-01 -1.16089687701184274271e-01 -2.42381487516208249389e+00 +6.53937377563897082045e-03 -1.43840254992747430124e-03 +6.05389679205537323270e-01 -8.06637761115991169802e-01
8.00000000000000000000e+07 -1.75996041790990681575e-01 +6.25253802072358255693e-01 -2.99258211735990098390e-01 -2.66475896459443140074e+00 +7.20267207822714722321e-03 -2.05029161328831172062e-03 +5.59690211135067894332e-01 -8.40320419801520612779e-01
8.10000000000000000000e+07 -1.39114031958480766082e-01 +6.05574014794591386490e-01 -5.28486202321257314551e-01 -2.91676268984685149732e+00 +7.89352877361768068276e-03 -2.80670961663841145306e-03 +5.07563753107017290311e-01 -8.74121770451854462891e-01
8.20000000000000000000e+07 -1.02697555617841107534e-01 +5.82273346649624601312e-01 -8.12451141698123935342e-01 -3.17561362712540962150e+00 +8.59771698811792606243e-03 -3.73487332806375638139e-03 +4.47917129010826142732e-01 -9.07427657180273294912e-01
8.30000000000000000000e+07 -6.71583476584129424047e-02 +5.55144671140149426058e-01 -1.16097142089017202338e+00 -3.43479711778125462729e+00 +9.29345816279063263732e-03 -4.86547064248150917809e-03 +3.79500373692720993635e-01 -9.39314452128737320535e-01
8.40000000000000000000e+07 -3.29859241564384175760e-02 +5.23997171788008087034e-01 -1.58484195516105108581e+00 -3.68461250658447259099e+00 +9.94856471455260460424e-03 -6.23202557371008158960e-03 +3.00927080866905227730e-01 -9.68424497482419543992e-01
8.50000000000000000000e+07 -7.67228653291818218918e-04 +4.88669680002110085049e-01 -2.09536348707201058872e+00 -3.91101972068553038753e+00 +1.05167441326609392704e-02 -7.86923184578762480168e-03 +2.10738082224856737579e-01 -9.92802445454666004920e-01
8.60000000000000000000e+07 +2.87885028294894707024e-02 +4.49055252962153761409e-01 -2.70333226869567599948e+00 -4.09421464160801029664e+00 +1.09330903954890992780e-02 -9.80949664059097004021e-03 +1.07541912348524504317e-01 -1.00969217659967758216e+00
8.70000000000000000000e+07 +5.48222120059491113686e-02 +4.05144718771708323146e-01 -3.41713999205525276182e+00 -4.20704535316435812575e+00 +1.11091730217790438107e-02 -1.20765717916974241186e-02 -9.71778166068182347459e-03 -1.01531024914159284656e+00
8.80000000000000000000e+07 +7.63031147344500892959e-02 +3.57099288027042882643e-01 -4.23952347681589891693e+00 -4.21363101661180561308e+00 +1.09289592433553760242e-02 -1.46748243283726653718e-02 -1.41301969741660427005e-01 -1.00464753694638586623e+00
8.90000000000000000000e+07 +9.20311957609268316283e-02 +3.05361860899369785827e-01 -5.16251036680781894006e+00 -4.06900682849009243114e+00 +1.02483028889308012965e-02 -1.75727808825669740145e-02 -2.85958187735348645653e-01 -9.71416686703650000823e-01
9.00000000000000000000e+07 +1.00698229582044995745e-01 +2.50807582205517021201e-01 -6.16048336660047102242e+00 -3.72130784243518508703e+00 +8.90292210347724821684e-03 -2.06808925669995924412e-02 -4.39933577356365290711e-01 -9.08361462554729270913e-01
9.10000000000000000000e+07 +1.01055678147609850903e-01 +1.94907435585655375299e-01 -7.18243993625458898578e+00 -3.11867345289448216761e+00 +6.73180860515733975324e-03 -2.38273023328579719449e-02 -5.95872783056719201866e-01 -8.08239510490056156655e-01
9.20000000000000000000e+07 +9.22314172205777049740e-02 +1.39828082511920914754e-01 -8.14675993054553515549e+00 -2.22285822945296995812e+00 +3.62208159447566235833e-03 -2.67426286734162022007e-02 -7.42073658280292924871e-01 -6.65761923396444466050e-01
9.30000000000000000000e+07 +7.41763778780500926402e-02 +8.83333165186889757159e-02 -8.94444135533812811900e+00 -1.02895897831727456406e+00 -4.27409385319515999768e-04 -2.90730374509680505879e-02 -8.62951556668372421477e-01 -4.80405048880626961427e-01
9.40000000000000000000e+07 +4.80887635284901193700e-02 +4.33522558324495599358e-02 -9.45700870453227437906e+00 +4.15194717824724612854e-01 -5.24549224301626426659e-03 -3.04408988176753936283e-02 -9.41597404736585485985e-01 -2.59172999934626502316e-01
9.50000000000000000000e+07 +1.65271899789189991026e-02 +7.22771357785481627367e-03 -9.58902319066107367007e+00 +2.00268766984527513131e+00 -1.04723127316387609742e-02 -3.05511369138794855460e-02 -9.64418400844978207509e-01 -1.74978225452003810503e-02
9.60000000000000000000e+07 -1.70329948488777693782e-02 -1.90607182220006304840e-02 -9.30270499736071876384e+00 +3.58551549956162851629e+00 -1.56222915545388696401e-02 -2.93012460761817583599e-02 -9.26077357576675419537e-01 +2.23336267941634303291e-01
9.70000000000000000000e+07 -4.91162315054107789791e-02 -3.62368860398641079446e-02 -8.63424711710571557433e+00 +5.01405970930067024227e+00 -2.02144046543824701390e-02 -2.68290603552404569032e-02 -8.31815803158871935885e-01 +4.41832825829139075324e-01
9.80000000000000000000e+07 -7.71720366080258513009e-02 -4.63869648323751021524e-02 -7.68027704433098090675e+00 +6.17810454061681202376e+00 -2.39035545725826414909e-02 -2.34634148651382302975e-02 -6.95514754427814962945e-01 +6.22139932810879092706e-01
9.90000000000000000000e+07 -1.00026376455306542645e-01 -5.21602822133068674826e-02 -6.56343011988179991789e+00 +7.02782600609377361423e+00 -2.65441870945995056497e-02 -1.96096240837396462720e-02 -5.34774943769311006392e-01 +7.57045183363812768107e-01
1.00000000000000000000e+08 -1.17749564424081243352e-01 -5.59884951138312075836e-02 -5.39776118020718342905e+00 +7.56912388084144271971e+00 -2.81705952377923757313e-02 -1.56377991489273851511e-02 -3.65976168555094016899e-01 +8.47307095496703355231e-01
1.01000000000000000000e+08 -1.31191615466261235490e-01 -5.96464997320243356382e-02 -4.26862769520367368870e+00 +7.84376138020780011573e+00 -2.89297996131904766592e-02 -1.18201366060208239855e-02 -2.01404066328642328276e-01 +8.98818267487439648278e-01
1.02000000000000000000e+08 -1.41499443164904314951e-01 -6.41761570200499453787e-02 -3.22851297131294900922e+00 +7.90808864670254596518e+00 -2.90119192234111061834e-02 -8.32014123865598351215e-03 -4.86528770420356915238e-02 +9.19567212623532359572e-01
1.03000000000000000000e+08 -1.49785415594180182364e-01 -7.00235285044384647701e-02 -2.30252259531129244152e+00 +7.81806031048983562926e+00 -2.86022419117655038456e-02 -5.21242892663161330735e-03 +8.85910728115040790875e-02 +9.17499157171803969568e-01
1.04000000000000000000e+08 -1.56966040381115889968e-01 -7.72376785871312365739e-02 -1.49690779148780994667e+00 +7.62164080438357771641e+00 -2.78576746459250970678e-02 -2.51139018694528787234e-03 +2.09334055708871535906e-01 +8.99431456319641497998e-01
1.05000000000000000000e+08 -1.63719920163600984875e-01 -8.56453909136433433336e-02 -8.06758566813422062225e-01 +7.35651605401123376282e+00 -2.69003119899438800089e-02 -1.96465424617316836153e-04 +3.14178243161418013774e-01 +8.70726246395534753120e-01
1.06000000000000000000e+08 -1.70507954423881502581e-01 -9.49747410129501978826e-02 -2.21572001737533330612e-01 +7.05065537558843491439e+00 -2.58199800227821643639e-02 +1.76984950305533392245e-03 +4.04528228630083974693e-01 +8.35369664365826158914e-01
1.07000000000000000000e+08 -1.77616506120831907367e-01 -1.04930883373389821633e-01 +2.71231665985406156238e-01 +6.72399189637629035587e+00 -2.46801438320737934196e-02 +3.43080512019006134139e-03 +4.82090266308455916988e-01 +7.96210503705627181681e-01
1.08000000000000000000e+08 -1.85202700373491124797e-01 -1.15236971923156544806e-01 +6.84319495353219120481e-01 +6.39028210326907419869e+00 -2.35241979514091981152e-02 +4.82917840838685205607e-03 +5.48589127779926744033e-01 +7.55224311143774418298e-01
1.09000000000000000000e+08 -1.93333245007493215173e-01 -1.25652841408682908186e-01 +1.02944752820856066933e+00 +6.05874160873702738428e+00 -2.23809018683826868590e-02 +6.00424092213750273950e-03 +6.05626158829331906475e-01 +7.13745504564552657456e-01
1.10000000000000000000e+08 -2.02014605703485006227e-01 -1.35980807255066504791e-01 +1.31704965629796721949e+00 +5.73534246723608021057e+00 -2.12686411998755098285e-02 +6.99058853670501273436e-03 +6.54620886731774986877e-01 +6.72651216765183246338e-01
1.11000000000000000000e+08 -2.11215161983366650489e-01 -1.46064658247587797479e-01 +1.55614792527499945507e+00 +5.42378567241274289756e+00 -2.01985934653966248131e-02 +7.81797215580384147193e-03 +6.96798285530622174555e-01 +6.32498860523349026863e-01
1.12000000000000000000e+08 -2.20880869243943234181e-01 -1.55785470662708258605e-01 +1.75442350842498240304e+00 +5.12620631686430794360e+00 -1.91770059721195068603e-02 +8.51161518130309421859e-03 +7.33198795612681086808e-01 +5.93625650324472231567e-01
1.13000000000000000000e+08 -2.30946011709373955068e-01 -1.65056274449054629638e-01 +1.91835695880448175998e+00 +4.84367455232911581220e+00 -1.82068025922347553891e-02 +9.09272945338840052343e-03 +7.64698095068747751846e-01 +5.56219108383261828799e-01
1.14000000000000000000e+08 -2.41340389379538777792e-01 -1.73816634098254430008e-01 +2.05338873921168785230e+00 +4.57654689010625581602e+00 -1.72887027517388963682e-02 +9.57907781391580115393e-03 +7.92029666738419568794e-01 +5.20366344383266676843e-01
1.15000000000000000000e+08 -2.51993979345586316398e-01 -1.82027650690139236600e-01 +2.16407558657097709442e+00 +4.32471042817719020235e+00 -1.64219939389005989416e-02 +9.98550956510515369535e-03 +8.15806704536581772658e-01 +4.86088184629628272670e-01
1.16000000000000000000e+08 -2.62839839961097943011e-01 -1.89667586226378609426e-01 +2.25423188249426953433e+00 +4.08775155912175591766e+00 -1.56050614568147422156e-02 +1.03244378222198986139e-02 +8.36541840313453466393e-01 +4.53362646678137581890e-01
1.17000000000000000000e+08 -2.73815810237646894976e-01 -1.96728151903165504599e-01 +2.32705241527460904294e+00 +3.86507185691443222453e+00 -1.48357494663483163722e-02 +1.06062499953880617909e-02 +8.54664196702746070677e-01 +4.22140988502913983016e-01
1.18000000000000000000e+08 -2.84865394993884968322e-01 -2.03211424500455539732e-01 +2.38521651824157654431e+00 +3.65596719322247443174e+00 -1.41116053311874448117e-02 +1.08396534358162939526e-02 +8.70533780351883446080e-01 +3.92358610951147324108e-01
1.19000000000000000000e+08 -2.95938108958090195788e-01 -2.09127322190289316461e-01 +2.43097519447370125079e+00 +3.45968132355919566479e+00 -1.34300434643216878849e-02 +1.10319629170647220961e-02 +8.84453457684160060381e-01 +3.63942405181496675404e-01
1.20000000000000000000e+08 -3.06989469499937994712e-01 -2.14491561535472163857e-01 +2.46622342316387399563e+00 +3.27544177489496135536e+00 -1.27884537476970414072e-02 +1.11893380695580434148e-02 +8.96678835366082060965e-01 +3.36815650480390804677e-01
1.21000000000000000000e+08 -3.17980768814050296367e-01 -2.19324019461621277927e-01 +2.49255990828588869235e+00 +3.10248347930043433252e+00 -1.21842718525468629576e-02 +1.13169787829594456485e-02 +9.07426374105996691455e-01 +3.10901227841172467237e-01
1.22000000000000000000e+08 -3.28878715141841249103e-01 -2.23647431145537145536e-01 +2.51133635736297833319e+00 +2.94006393720230896349e+00 -1.16150234300684065958e-02 +1.14192858115629500282e-02 +9.16880037445574114230e-01 +2.86123678584634943967e-01
1.23000000000000000000e+08 -3.39655003816438094688e-01 -2.27486363706829758380e-01 +2.52369811507692176633e+00 +2.78747254125497567756e+00 -1.10783504448541784970e-02 +1.14999928137465567968e-02 +9.25196737873165031552e-01 +2.62410473900660412561e-01
1.24000000000000000000e+08 -3.50285858839732511250e-01 -2.30866414628408761489e-01 +2.53061769741710307358e+00 +2.64403589243621217619e+00 -1.05720253731813942921e-02 +1.15622750478947822206e-02 +9.32510801406593481389e-01 +2.39692748246211034813e-01
1.25000000000000000000e+08 -3.60751571735485276893e-01 -2.33813592180684703958e-01 +2.53292251147122593480e+00 +2.50912038497496858724e+00 -1.00939572274132589869e-02 +1.16088390311302400160e-02 +9.38937633602067944771e-01 +2.17905671452480548256e-01
1.26000000000000000000e+08 -3.71036054735550624439e-01 -2.36353842480459847009e-01 +2.53131781732375760186e+00 +2.38213295065444352616e+00 -9.64219214981348882176e-03 +1.16419966773896668699e-02 +9.44576736607948386215e-01 +1.96988580360944853798e-01
1.27000000000000000000e+08 -3.81126418667716571065e-01 -2.38512694119079993182e-01 +2.52640579484396798904e+00 +2.26252058382460141672e+00 -9.21491047472289964704e-03 +1.16637267704796168677e-02 +9.49514198764343064774e-01 +1.76884953366044289647e-01
1.28000000000000000000e+08 -3.91012581328259334335e-01 -2.40314996602783159663e-01 +2.51870141747258591280e+00 +2.14976908023902613110e+00 -8.81042157132334857739e-03 +1.16757260846112737029e-02 +9.53824755024149539828e-01 +1.57542285259671233089e-01
1.29000000000000000000e+08 -4.00686909013367564825e-01 -2.41784733268131712958e-01 +2.50864570352567550771e+00 +2.04340129089697075671e+00 -8.42715737057224759110e-03 +1.16794520234179757812e-02 +9.57573497534611184356e-01 +1.38911901719689367951e-01
1.30000000000000000000e+08 -4.10143891810816618726e-01 -2.42944892987213723057e-01 +2.49661680858967338636e+00 +1.94297509937861856422e+00 -8.06366519476144072431e-03 +1.16761582919254203183e-02 +9.60817300402357132860e-01 +1.20948740230771886739e-01
