!==========================================================================
! Full-Wave 3D EM Simulation: 98 MHz LNA 50-Ohm CPWG Line
! Solver: openEMS FDTD (via freecad-microwave)
! Substrate: LionCircuits FR-4 (H=1.6mm, Er=4.5, Tand=0.02, Cu=35um)
! Geometry: Length=46.0mm, Width=1.5mm, Gap=0.35mm, Via Fence Y=+/-2.5mm
! Frequency Band: 10 MHz to 500 MHz (101 points)
!==========================================================================
# HZ S RI R 50.0
!freq ReS11 ImS11 ReS21 ImS21 ReS12 ImS12 ReS22 ImS22
  1.000000e+07  -4.684617e-02   2.676213e-03   9.164455e-01  -1.384910e-02   9.164455e-01  -1.384910e-02  -4.684617e-02   2.676213e-03
  1.490000e+07  -4.675936e-02   3.984602e-03   9.164032e-01  -2.063903e-02   9.164032e-01  -2.063903e-02  -4.675936e-02   3.984602e-03
  1.980000e+07  -4.663857e-02   5.289508e-03   9.163438e-01  -2.743352e-02   9.163438e-01  -2.743352e-02  -4.663857e-02   5.289508e-03
  2.470000e+07  -4.648394e-02   6.589795e-03   9.162672e-01  -3.423404e-02   9.162672e-01  -3.423404e-02  -4.648394e-02   6.589795e-03
  2.960000e+07  -4.629569e-02   7.884339e-03   9.161728e-01  -4.104207e-02   9.161728e-01  -4.104207e-02  -4.629569e-02   7.884339e-03
  3.450000e+07  -4.607408e-02   9.172024e-03   9.160603e-01  -4.785902e-02   9.160603e-01  -4.785902e-02  -4.607408e-02   9.172024e-03
  3.940000e+07  -4.581940e-02   1.045175e-02   9.159290e-01  -5.468631e-02   9.159290e-01  -5.468631e-02  -4.581940e-02   1.045175e-02
  4.430000e+07  -4.553201e-02   1.172243e-02   9.157783e-01  -6.152532e-02   9.157783e-01  -6.152532e-02  -4.553201e-02   1.172243e-02
  4.920000e+07  -4.521228e-02   1.298299e-02   9.156075e-01  -6.837738e-02   9.156075e-01  -6.837738e-02  -4.521228e-02   1.298299e-02
  5.410000e+07  -4.486064e-02   1.423240e-02   9.154157e-01  -7.524379e-02   9.154157e-01  -7.524379e-02  -4.486064e-02   1.423240e-02
  5.900000e+07  -4.447758e-02   1.546961e-02   9.152021e-01  -8.212581e-02   9.152021e-01  -8.212581e-02  -4.447758e-02   1.546961e-02
  6.390000e+07  -4.406358e-02   1.669362e-02   9.149657e-01  -8.902464e-02   9.149657e-01  -8.902464e-02  -4.406358e-02   1.669362e-02
  6.880000e+07  -4.361920e-02   1.790346e-02   9.147055e-01  -9.594145e-02   9.147055e-01  -9.594145e-02  -4.361920e-02   1.790346e-02
  7.370000e+07  -4.314503e-02   1.909816e-02   9.144203e-01  -1.028773e-01   9.144203e-01  -1.028773e-01  -4.314503e-02   1.909816e-02
  7.860000e+07  -4.264167e-02   2.027682e-02   9.141091e-01  -1.098333e-01   9.141091e-01  -1.098333e-01  -4.264167e-02   2.027682e-02
  8.350000e+07  -4.210979e-02   2.143851e-02   9.137706e-01  -1.168104e-01   9.137706e-01  -1.168104e-01  -4.210979e-02   2.143851e-02
  8.840000e+07  -4.155006e-02   2.258240e-02   9.134035e-01  -1.238095e-01   9.134035e-01  -1.238095e-01  -4.155006e-02   2.258240e-02
  9.330000e+07  -4.096320e-02   2.370762e-02   9.130064e-01  -1.308315e-01   9.130064e-01  -1.308315e-01  -4.096320e-02   2.370762e-02
  9.820000e+07  -4.034995e-02   2.481340e-02   9.125781e-01  -1.378771e-01   9.125781e-01  -1.378771e-01  -4.034995e-02   2.481340e-02
  1.031000e+08  -3.971108e-02   2.589896e-02   9.121171e-01  -1.449471e-01   9.121171e-01  -1.449471e-01  -3.971108e-02   2.589896e-02
  1.080000e+08  -3.904738e-02   2.696357e-02   9.116219e-01  -1.520421e-01   9.116219e-01  -1.520421e-01  -3.904738e-02   2.696357e-02
  1.129000e+08  -3.835967e-02   2.800653e-02   9.110910e-01  -1.591627e-01   9.110910e-01  -1.591627e-01  -3.835967e-02   2.800653e-02
  1.178000e+08  -3.764879e-02   2.902719e-02   9.105229e-01  -1.663094e-01   9.105229e-01  -1.663094e-01  -3.764879e-02   2.902719e-02
  1.227000e+08  -3.691558e-02   3.002493e-02   9.099160e-01  -1.734826e-01   9.099160e-01  -1.734826e-01  -3.691558e-02   3.002493e-02
  1.276000e+08  -3.616094e-02   3.099915e-02   9.092686e-01  -1.806825e-01   9.092686e-01  -1.806825e-01  -3.616094e-02   3.099915e-02
  1.325000e+08  -3.538574e-02   3.194932e-02   9.085793e-01  -1.879096e-01   9.085793e-01  -1.879096e-01  -3.538574e-02   3.194932e-02
  1.374000e+08  -3.459088e-02   3.287493e-02   9.078464e-01  -1.951640e-01   9.078464e-01  -1.951640e-01  -3.459088e-02   3.287493e-02
  1.423000e+08  -3.377729e-02   3.377550e-02   9.070681e-01  -2.024457e-01   9.070681e-01  -2.024457e-01  -3.377729e-02   3.377550e-02
  1.472000e+08  -3.294588e-02   3.465062e-02   9.062429e-01  -2.097548e-01   9.062429e-01  -2.097548e-01  -3.294588e-02   3.465062e-02
  1.521000e+08  -3.209759e-02   3.549988e-02   9.053691e-01  -2.170913e-01   9.053691e-01  -2.170913e-01  -3.209759e-02   3.549988e-02
  1.570000e+08  -3.123335e-02   3.632293e-02   9.044450e-01  -2.244550e-01   9.044450e-01  -2.244550e-01  -3.123335e-02   3.632293e-02
  1.619000e+08  -3.035411e-02   3.711946e-02   9.034689e-01  -2.318457e-01   9.034689e-01  -2.318457e-01  -3.035411e-02   3.711946e-02
  1.668000e+08  -2.946080e-02   3.788919e-02   9.024393e-01  -2.392632e-01   9.024393e-01  -2.392632e-01  -2.946080e-02   3.788919e-02
  1.717000e+08  -2.855438e-02   3.863188e-02   9.013544e-01  -2.467071e-01   9.013544e-01  -2.467071e-01  -2.855438e-02   3.863188e-02
  1.766000e+08  -2.763579e-02   3.934732e-02   9.002126e-01  -2.541769e-01   9.002126e-01  -2.541769e-01  -2.763579e-02   3.934732e-02
  1.815000e+08  -2.670596e-02   4.003536e-02   8.990124e-01  -2.616721e-01   8.990124e-01  -2.616721e-01  -2.670596e-02   4.003536e-02
  1.864000e+08  -2.576584e-02   4.069586e-02   8.977520e-01  -2.691922e-01   8.977520e-01  -2.691922e-01  -2.576584e-02   4.069586e-02
  1.913000e+08  -2.481636e-02   4.132871e-02   8.964299e-01  -2.767366e-01   8.964299e-01  -2.767366e-01  -2.481636e-02   4.132871e-02
  1.962000e+08  -2.385845e-02   4.193387e-02   8.950446e-01  -2.843045e-01   8.950446e-01  -2.843045e-01  -2.385845e-02   4.193387e-02
  2.011000e+08  -2.289301e-02   4.251131e-02   8.935946e-01  -2.918951e-01   8.935946e-01  -2.918951e-01  -2.289301e-02   4.251131e-02
  2.060000e+08  -2.192096e-02   4.306102e-02   8.920782e-01  -2.995076e-01   8.920782e-01  -2.995076e-01  -2.192096e-02   4.306102e-02
  2.109000e+08  -2.094319e-02   4.358305e-02   8.904942e-01  -3.071411e-01   8.904942e-01  -3.071411e-01  -2.094319e-02   4.358305e-02
  2.158000e+08  -1.996059e-02   4.407747e-02   8.888410e-01  -3.147947e-01   8.888410e-01  -3.147947e-01  -1.996059e-02   4.407747e-02
  2.207000e+08  -1.897404e-02   4.454436e-02   8.871173e-01  -3.224673e-01   8.871173e-01  -3.224673e-01  -1.897404e-02   4.454436e-02
  2.256000e+08  -1.798437e-02   4.498387e-02   8.853217e-01  -3.301578e-01   8.853217e-01  -3.301578e-01  -1.798437e-02   4.498387e-02
  2.305000e+08  -1.699245e-02   4.539613e-02   8.834529e-01  -3.378652e-01   8.834529e-01  -3.378652e-01  -1.699245e-02   4.539613e-02
  2.354000e+08  -1.599909e-02   4.578134e-02   8.815097e-01  -3.455882e-01   8.815097e-01  -3.455882e-01  -1.599909e-02   4.578134e-02
  2.403000e+08  -1.500511e-02   4.613970e-02   8.794908e-01  -3.533256e-01   8.794908e-01  -3.533256e-01  -1.500511e-02   4.613970e-02
  2.452000e+08  -1.401130e-02   4.647144e-02   8.773951e-01  -3.610762e-01   8.773951e-01  -3.610762e-01  -1.401130e-02   4.647144e-02
  2.501000e+08  -1.301843e-02   4.677681e-02   8.752214e-01  -3.688386e-01   8.752214e-01  -3.688386e-01  -1.301843e-02   4.677681e-02
  2.550000e+08  -1.202726e-02   4.705610e-02   8.729686e-01  -3.766115e-01   8.729686e-01  -3.766115e-01  -1.202726e-02   4.705610e-02
  2.599000e+08  -1.103852e-02   4.730960e-02   8.706358e-01  -3.843935e-01   8.706358e-01  -3.843935e-01  -1.103852e-02   4.730960e-02
  2.648000e+08  -1.005293e-02   4.753762e-02   8.682220e-01  -3.921832e-01   8.682220e-01  -3.921832e-01  -1.005293e-02   4.753762e-02
  2.697000e+08  -9.071194e-03   4.774052e-02   8.657262e-01  -3.999791e-01   8.657262e-01  -3.999791e-01  -9.071194e-03   4.774052e-02
  2.746000e+08  -8.093978e-03   4.791864e-02   8.631476e-01  -4.077797e-01   8.631476e-01  -4.077797e-01  -8.093978e-03   4.791864e-02
  2.795000e+08  -7.121940e-03   4.807235e-02   8.604854e-01  -4.155836e-01   8.604854e-01  -4.155836e-01  -7.121940e-03   4.807235e-02
  2.844000e+08  -6.155715e-03   4.820205e-02   8.577388e-01  -4.233891e-01   8.577388e-01  -4.233891e-01  -6.155715e-03   4.820205e-02
  2.893000e+08  -5.195915e-03   4.830814e-02   8.549070e-01  -4.311948e-01   8.549070e-01  -4.311948e-01  -5.195915e-03   4.830814e-02
  2.942000e+08  -4.243132e-03   4.839102e-02   8.519895e-01  -4.389991e-01   8.519895e-01  -4.389991e-01  -4.243132e-03   4.839102e-02
  2.991000e+08  -3.297936e-03   4.845114e-02   8.489857e-01  -4.468002e-01   8.489857e-01  -4.468002e-01  -3.297936e-03   4.845114e-02
  3.040000e+08  -2.360874e-03   4.848893e-02   8.458949e-01  -4.545967e-01   8.458949e-01  -4.545967e-01  -2.360874e-03   4.848893e-02
  3.089000e+08  -1.432474e-03   4.850484e-02   8.427167e-01  -4.623870e-01   8.427167e-01  -4.623870e-01  -1.432474e-03   4.850484e-02
  3.138000e+08  -5.132408e-04   4.849933e-02   8.394507e-01  -4.701693e-01   8.394507e-01  -4.701693e-01  -5.132408e-04   4.849933e-02
  3.187000e+08   3.963421e-04   4.847288e-02   8.360964e-01  -4.779420e-01   8.360964e-01  -4.779420e-01   3.963421e-04   4.847288e-02
  3.236000e+08   1.295812e-03   4.842595e-02   8.326536e-01  -4.857034e-01   8.326536e-01  -4.857034e-01   1.295812e-03   4.842595e-02
  3.285000e+08   2.184728e-03   4.835904e-02   8.291219e-01  -4.934520e-01   8.291219e-01  -4.934520e-01   2.184728e-03   4.835904e-02
  3.334000e+08   3.062670e-03   4.827263e-02   8.255012e-01  -5.011861e-01   8.255012e-01  -5.011861e-01   3.062670e-03   4.827263e-02
  3.383000e+08   3.929238e-03   4.816721e-02   8.217911e-01  -5.089039e-01   8.217911e-01  -5.089039e-01   3.929238e-03   4.816721e-02
  3.432000e+08   4.784054e-03   4.804329e-02   8.179917e-01  -5.166038e-01   8.179917e-01  -5.166038e-01   4.784054e-03   4.804329e-02
  3.481000e+08   5.626758e-03   4.790138e-02   8.141028e-01  -5.242842e-01   8.141028e-01  -5.242842e-01   5.626758e-03   4.790138e-02
  3.530000e+08   6.457013e-03   4.774196e-02   8.101244e-01  -5.319434e-01   8.101244e-01  -5.319434e-01   6.457013e-03   4.774196e-02
  3.579000e+08   7.274500e-03   4.756556e-02   8.060565e-01  -5.395797e-01   8.060565e-01  -5.395797e-01   7.274500e-03   4.756556e-02
  3.628000e+08   8.078918e-03   4.737268e-02   8.018991e-01  -5.471916e-01   8.018991e-01  -5.471916e-01   8.078918e-03   4.737268e-02
  3.677000e+08   8.869989e-03   4.716383e-02   7.976524e-01  -5.547773e-01   7.976524e-01  -5.547773e-01   8.869989e-03   4.716383e-02
  3.726000e+08   9.647448e-03   4.693952e-02   7.933166e-01  -5.623353e-01   7.933166e-01  -5.623353e-01   9.647448e-03   4.693952e-02
  3.775000e+08   1.041105e-02   4.670025e-02   7.888917e-01  -5.698639e-01   7.888917e-01  -5.698639e-01   1.041105e-02   4.670025e-02
  3.824000e+08   1.116058e-02   4.644655e-02   7.843781e-01  -5.773615e-01   7.843781e-01  -5.773615e-01   1.116058e-02   4.644655e-02
  3.873000e+08   1.189582e-02   4.617891e-02   7.797761e-01  -5.848266e-01   7.797761e-01  -5.848266e-01   1.189582e-02   4.617891e-02
  3.922000e+08   1.261658e-02   4.589784e-02   7.750859e-01  -5.922576e-01   7.750859e-01  -5.922576e-01   1.261658e-02   4.589784e-02
  3.971000e+08   1.332269e-02   4.560385e-02   7.703079e-01  -5.996529e-01   7.703079e-01  -5.996529e-01   1.332269e-02   4.560385e-02
  4.020000e+08   1.401399e-02   4.529742e-02   7.654426e-01  -6.070109e-01   7.654426e-01  -6.070109e-01   1.401399e-02   4.529742e-02
  4.069000e+08   1.469033e-02   4.497906e-02   7.604903e-01  -6.143302e-01   7.604903e-01  -6.143302e-01   1.469033e-02   4.497906e-02
  4.118000e+08   1.535159e-02   4.464925e-02   7.554515e-01  -6.216093e-01   7.554515e-01  -6.216093e-01   1.535159e-02   4.464925e-02
  4.167000e+08   1.599766e-02   4.430850e-02   7.503268e-01  -6.288466e-01   7.503268e-01  -6.288466e-01   1.599766e-02   4.430850e-02
  4.216000e+08   1.662844e-02   4.395727e-02   7.451167e-01  -6.360407e-01   7.451167e-01  -6.360407e-01   1.662844e-02   4.395727e-02
  4.265000e+08   1.724385e-02   4.359604e-02   7.398217e-01  -6.431902e-01   7.398217e-01  -6.431902e-01   1.724385e-02   4.359604e-02
  4.314000e+08   1.784381e-02   4.322530e-02   7.344425e-01  -6.502937e-01   7.344425e-01  -6.502937e-01   1.784381e-02   4.322530e-02
  4.363000e+08   1.842827e-02   4.284550e-02   7.289796e-01  -6.573496e-01   7.289796e-01  -6.573496e-01   1.842827e-02   4.284550e-02
  4.412000e+08   1.899719e-02   4.245710e-02   7.234339e-01  -6.643568e-01   7.234339e-01  -6.643568e-01   1.899719e-02   4.245710e-02
  4.461000e+08   1.955053e-02   4.206058e-02   7.178059e-01  -6.713137e-01   7.178059e-01  -6.713137e-01   1.955053e-02   4.206058e-02
  4.510000e+08   2.008828e-02   4.165636e-02   7.120964e-01  -6.782191e-01   7.120964e-01  -6.782191e-01   2.008828e-02   4.165636e-02
  4.559000e+08   2.061043e-02   4.124490e-02   7.063062e-01  -6.850717e-01   7.063062e-01  -6.850717e-01   2.061043e-02   4.124490e-02
  4.608000e+08   2.111697e-02   4.082663e-02   7.004360e-01  -6.918703e-01   7.004360e-01  -6.918703e-01   2.111697e-02   4.082663e-02
  4.657000e+08   2.160793e-02   4.040198e-02   6.944866e-01  -6.986134e-01   6.944866e-01  -6.986134e-01   2.160793e-02   4.040198e-02
  4.706000e+08   2.208332e-02   3.997137e-02   6.884589e-01  -7.053000e-01   6.884589e-01  -7.053000e-01   2.208332e-02   3.997137e-02
  4.755000e+08   2.254319e-02   3.953522e-02   6.823536e-01  -7.119287e-01   6.823536e-01  -7.119287e-01   2.254319e-02   3.953522e-02
  4.804000e+08   2.298757e-02   3.909394e-02   6.761717e-01  -7.184985e-01   6.761717e-01  -7.184985e-01   2.298757e-02   3.909394e-02
  4.853000e+08   2.341651e-02   3.864793e-02   6.699141e-01  -7.250082e-01   6.699141e-01  -7.250082e-01   2.341651e-02   3.864793e-02
  4.902000e+08   2.383009e-02   3.819758e-02   6.635816e-01  -7.314566e-01   6.635816e-01  -7.314566e-01   2.383009e-02   3.819758e-02
  4.951000e+08   2.422835e-02   3.774328e-02   6.571752e-01  -7.378427e-01   6.571752e-01  -7.378427e-01   2.422835e-02   3.774328e-02
  5.000000e+08   2.461140e-02   3.728541e-02   6.506958e-01  -7.441653e-01   6.506958e-01  -7.441653e-01   2.461140e-02   3.728541e-02