! Created with skrf 2.1.0 (http://scikit-rf.org).
# Hz S RI R 50.0 
!freq ReS11 ImS11 ReS21 ImS21 ReS12 ImS12 ReS22 ImS22
10000000.0 -0.02092147560378182 0.0010205209419092357 0.9633415976058138 -0.006158657787585577 0.9633415976058135 -0.006158657787585576 -0.02092147560378182 0.0010205209419092362
14900000.0 -0.020893680060179057 0.001519596970455528 0.9633573531677523 -0.009178085358225651 0.9633573531677525 -0.009178085358225653 -0.020893680060179057 0.0015195969704555284
19800000.0 -0.02085501534683718 0.00201751938738583 0.963379137079264 -0.012199500295878652 0.963379137079264 -0.012199500295878652 -0.02085501534683718 0.00201751938738583
24700000.0 -0.020805527094385476 0.0025139126368524047 0.9634069339190307 -0.015223543464943165 0.9634069339190307 -0.015223543464943165 -0.020805527094385476 0.0025139126368524042
29600000.0 -0.02074529787614793 0.0030084060094093573 0.9634405127734219 -0.018250865015926876 0.9634405127734218 -0.018250865015926872 -0.02074529787614793 0.0030084060094093586
34500000.0 -0.02067441916619053 0.003500631998615241 0.9634797843636933 -0.02128208244212469 0.9634797843636932 -0.021282082442124685 -0.02067441916619053 0.00350063199861524
39400000.0 -0.0205929958249853 0.003990229834528674 0.9635244891610988 -0.024317823743748645 0.9635244891610988 -0.024317823743748645 -0.0205929958249853 0.003990229834528676
44300000.0 -0.02050115757885655 0.004476843332778727 0.9635744197051974 -0.027358699949242855 0.9635744197051974 -0.027358699949242855 -0.02050115757885655 0.0044768433327787285
49200000.0 -0.02039903468471494 0.004960121980135503 0.9636293316132031 -0.030405303346899618 0.9636293316132031 -0.030405303346899618 -0.02039903468471494 0.004960121980135503
54100000.0 -0.02028678207395544 0.005439733921490621 0.96368889868606 -0.0334582187011485 0.96368889868606 -0.0334582187011485 -0.02028678207395544 0.005439733921490622
59000000.0 -0.020164574419720055 0.005915336437104373 0.9637528463355272 -0.03651801430199279 0.963752846335527 -0.036518014301992786 -0.020164574419720055 0.0059153364371043685
63900000.0 -0.020032579860900537 0.006386609461254718 0.9638208181880572 -0.03958523868893428 0.9638208181880572 -0.03958523868893428 -0.020032579860900537 0.006386609461254721
68800000.0 -0.019890997477592702 0.0068532436871814074 0.9638924647280507 -0.04266043033485994 0.9638924647280506 -0.04266043033485994 -0.019890997477592702 0.0068532436871814074
73700000.0 -0.019740036385171675 0.007314929618883066 0.9639673524400394 -0.045744088041609975 0.9639673524400397 -0.04574408804160998 -0.019740036385171675 0.007314929618883068
78600000.0 -0.019579904365687854 0.007771385820957279 0.9640451465644468 -0.04883673102186215 0.9640451465644472 -0.048836731021862166 -0.019579904365687854 0.007771385820957275
83500000.0 -0.01941083717901473 0.008222316850128487 0.96412538143374 -0.05193882045806766 0.9641253814337397 -0.051938820458067636 -0.01941083717901473 0.008222316850128484
88400000.0 -0.019233067891230766 0.008667470501960477 0.9642075980409889 -0.055050799794798023 0.9642075980409889 -0.055050799794798023 -0.019233067891230766 0.00866747050196048
93300000.0 -0.019046846355909648 0.009106573619616466 0.9642913000792336 -0.05817312182200269 0.9642913000792336 -0.05817312182200269 -0.019046846355909648 0.009106573619616466
98200000.0 -0.018852425957386374 0.009539396038933794 0.9643760808390045 -0.061306147899545235 0.9643760808390045 -0.061306147899545235 -0.018852425957386374 0.009539396038933792
103100000.0 -0.018650071773341794 0.009965699814675143 0.9644614110374063 -0.06445030041022712 0.9644614110374063 -0.06445030041022712 -0.018650071773341794 0.009965699814675148
108000000.0 -0.018440053244151964 0.010385268270388215 0.9645467612486287 -0.06760591930320564 0.9645467612486286 -0.06760591930320563 -0.018440053244151964 0.010385268270388215
112900000.0 -0.018222648957507356 0.010797894080735958 0.9646316088704631 -0.07077335100864221 0.9646316088704631 -0.07077335100864221 -0.018222648957507356 0.010797894080735967
117800000.0 -0.017998142647525795 0.011203389409135246 0.9647154340770004 -0.07395290400553395 0.9647154340770004 -0.07395290400553395 -0.017998142647525795 0.011203389409135255
122700000.0 -0.017766814742039536 0.01160157825593094 0.9647976750869803 -0.07714485409345062 0.9647976750869806 -0.07714485409345065 -0.017766814742039536 0.01160157825593093
127600000.0 -0.01752896787307129 0.011992290244916957 0.9648777220275845 -0.08034940112141843 0.9648777220275845 -0.08034940112141843 -0.01752896787307129 0.011992290244916963
132500000.0 -0.017284887986094004 0.012375378598041374 0.9649551189371365 -0.08356687012030276 0.9649551189371364 -0.08356687012030276 -0.017284887986094004 0.01237537859804138
137400000.0 -0.017034871368456446 0.012750706485723953 0.9650292636277664 -0.08679743186244152 0.9650292636277664 -0.08679743186244152 -0.017034871368456446 0.012750706485723953
142300000.0 -0.01677922452597397 0.013118146580519756 0.9650995094720168 -0.09004122737871342 0.9650995094720167 -0.09004122737871341 -0.01677922452597397 0.013118146580519751
147200000.0 -0.01651824137377437 0.013477596298668825 0.9651653529955007 -0.093298434013009 0.9651653529955005 -0.093298434013009 -0.01651824137377437 0.013477596298668822
152100000.0 -0.01625222605554141 0.013828949443845615 0.9652262020792807 -0.09656920462336945 0.9652262020792806 -0.09656920462336945 -0.01625222605554141 0.01382894944384562
157000000.0 -0.015981475698079527 0.014172124499092742 0.9652814580922107 -0.09985361341857335 0.9652814580922106 -0.09985361341857334 -0.015981475698079527 0.014172124499092734
161900000.0 -0.015706294236572563 0.014507051684835194 0.9653305264612164 -0.10315174405609734 0.9653305264612163 -0.10315174405609731 -0.015706294236572563 0.01450705168483519
166800000.0 -0.015426972338806015 0.014833669257462687 0.9653729046636901 -0.10646367705315417 0.9653729046636903 -0.1064636770531542 -0.015426972338806015 0.01483366925746269
171700000.0 -0.015143814038313087 0.015151930467423306 0.965407949733242 -0.1097894337664939 0.965407949733242 -0.1097894337664939 -0.015143814038313087 0.01515193046742331
176600000.0 -0.014857109698197988 0.015461797275776337 0.9654351027131705 -0.11312898941753435 0.9654351027131702 -0.11312898941753433 -0.014857109698197988 0.01546179727577634
181500000.0 -0.014567144623991602 0.01576325252775602 0.9654538510883728 -0.11648232186760471 0.9654538510883731 -0.11648232186760474 -0.014567144623991602 0.015763252527756014
186400000.0 -0.01427421324855364 0.016056278942541278 0.965463554034794 -0.11984944025441563 0.9654635540347939 -0.1198494402544156 -0.01427421324855364 0.016056278942541274
191300000.0 -0.01397859615478351 0.016340866734979868 0.9654636970917232 -0.12323029961493023 0.9654636970917234 -0.12323029961493027 -0.01397859615478351 0.01634086673497986
196200000.0 -0.013680574337572901 0.016617032997299542 0.9654537528350031 -0.12662477765297478 0.9654537528350035 -0.1266247776529748 -0.013680574337572901 0.016617032997299542
201100000.0 -0.013380413607418738 0.01688479547323792 0.9654331946202167 -0.13003276289263352 0.9654331946202166 -0.1300327628926335 -0.013380413607418738 0.016884795473237922
206000000.0 -0.013078389349901541 0.01714417491742364 0.9654014099430843 -0.13345417050712632 0.9654014099430843 -0.13345417050712632 -0.013078389349901541 0.01714417491742364
210900000.0 -0.012774760489339931 0.01739521120879128 0.9653579959722972 -0.1368888431229691 0.9653579959722968 -0.13688884312296903 -0.01277476048933993 0.017395211208791287
215800000.0 -0.012469789333542572 0.017637950314990467 0.965302376978436 -0.14033666621344645 0.965302376978436 -0.14033666621344645 -0.012469789333542572 0.017637950314990464
220700000.0 -0.012163728071080359 0.017872436268024223 0.9652340896265882 -0.14379742518618105 0.9652340896265882 -0.14379742518618105 -0.012163728071080362 0.017872436268024216
225600000.0 -0.011856812196761164 0.01809874262515147 0.9651526269703845 -0.147270924858424 0.9651526269703847 -0.14727092485842405 -0.01185681219676116 0.018098742625151487
230500000.0 -0.011549291653352937 0.01831692255384672 0.9650575322905249 -0.15075701497855754 0.9650575322905248 -0.1507570149785575 -0.011549291653352937 0.01831692255384673
235400000.0 -0.011241391456695842 0.01852706047505644 0.964948364203411 -0.15425541806556847 0.964948364203411 -0.15425541806556847 -0.011241391456695842 0.018527060475056444
240300000.0 -0.010933341974479949 0.018729233562385143 0.9648246447857031 -0.15776591950102042 0.9648246447857031 -0.15776591950102042 -0.01093334197447995 0.01872923356238513
245200000.0 -0.010625360830377585 0.01892352654426537 0.9646859799809856 -0.16128829664211464 0.9646859799809855 -0.1612882966421146 -0.010625360830377585 0.018923526544265375
250100000.0 -0.01031765728930539 0.019110031117612454 0.9645319110685623 -0.16482226148830625 0.9645319110685623 -0.16482226148830625 -0.010317657289305388 0.01911003111761247
255000000.0 -0.010010440104730782 0.01928884920147215 0.9643620287767871 -0.16836756969336567 0.9643620287767873 -0.1683675696933657 -0.010010440104730784 0.019288849201472134
259900000.0 -0.009703902385908443 0.019460078184301052 0.9641759954826193 -0.17192392452900743 0.9641759954826193 -0.17192392452900743 -0.009703902385908448 0.01946007818430104
264800000.0 -0.009398235992860238 0.01962381990371127 0.9639734269862933 -0.175491049049148 0.9639734269862933 -0.175491049049148 -0.009398235992860238 0.01962381990371127
269700000.0 -0.009093630523291532 0.019780194165156 0.9637539249270348 -0.17906863408118925 0.9637539249270348 -0.17906863408118925 -0.00909363052329153 0.01978019416515601
274600000.0 -0.008790256077935241 0.01992930784427517 0.9635171705905622 -0.1826563597589407 0.9635171705905624 -0.18265635975894076 -0.008790256077935243 0.019929307844275157
279500000.0 -0.008488284483518363 0.020071274873968717 0.9632628514250705 -0.1862539574607299 0.9632628514250705 -0.1862539574607299 -0.008488284483518365 0.020071274873968706
284400000.0 -0.008187878923998915 0.02020622106286622 0.9629906168050298 -0.18986104142427654 0.9629906168050301 -0.18986104142427657 -0.008187878923998913 0.020206221062866233
289300000.0 -0.00788919716775436 0.020334266567502906 0.9627001440193463 -0.19347736221882925 0.9627001440193461 -0.19347736221882925 -0.007889197167754363 0.020334266567502892
294200000.0 -0.007592385405487225 0.020455526363683616 0.9623912083090312 -0.1971025607869173 0.9623912083090312 -0.1971025607869173 -0.007592385405487225 0.02045552636368361
299100000.0 -0.007297586503626656 0.020570136456083264 0.962063512950901 -0.20073621397102706 0.9620635129509008 -0.20073621397102698 -0.007297586503626657 0.02057013645608326
304000000.0 -0.00700493804156537 0.020678219458403115 0.9617167598169121 -0.20437808732082524 0.9617167598169118 -0.20437808732082516 -0.00700493804156537 0.02067821945840311
308900000.0 -0.00671456950730767 0.020779901711879174 0.961350746822679 -0.20802783489909554 0.9613507468226792 -0.20802783489909557 -0.006714569507307674 0.020779901711879156
313800000.0 -0.006426601671595903 0.020875312786514173 0.9609652398498301 -0.21168503500407612 0.9609652398498298 -0.2116850350040761 -0.006426601671595904 0.020875312786514163
318700000.0 -0.006141154008352414 0.020964588016884965 0.9605599804519039 -0.21534936981782213 0.9605599804519036 -0.21534936981782205 -0.006141154008352411 0.020964588016884975
323600000.0 -0.005858333799537782 0.021047849033184976 0.9601348145502178 -0.21902044975254334 0.960134814550218 -0.21902044975254337 -0.005858333799537779 0.021047849033184986
328500000.0 -0.0055782505214334276 0.021125233497827616 0.9596895238445547 -0.22269800054865024 0.9596895238445544 -0.22269800054865016 -0.005578250521433424 0.02112523349782763
333400000.0 -0.005301000641730061 0.02119686640306791 0.9592239806217371 -0.22638163298478473 0.9592239806217371 -0.22638163298478473 -0.005301000641730056 0.021196866403067928
338300000.0 -0.0050266770974927025 0.021262879180760842 0.958737911569785 -0.23007096331934596 0.9587379115697848 -0.23007096331934587 -0.005026677097492704 0.02126287918076083
343200000.0 -0.004755368197774486 0.021323403317259203 0.9582312679634593 -0.2337656297860897 0.9582312679634593 -0.2337656297860897 -0.004755368197774491 0.02132340331725919
348100000.0 -0.004487159826449211 0.02137857190446758 0.9577038696095281 -0.23746531672671722 0.9577038696095281 -0.23746531672671722 -0.004487159826449213 0.02137857190446757
353000000.0 -0.00422212451016525 0.021428502571594097 0.9571555959812461 -0.24116964610180527 0.957155595981246 -0.24116964610180525 -0.0042221245101652476 0.021428502571594104
357900000.0 -0.003960337653548895 0.021473332960878503 0.956586318167193 -0.24487824528099858 0.956586318167193 -0.24487824528099858 -0.003960337653548897 0.021473332960878493
362800000.0 -0.0037018684478532073 0.021513185344581753 0.9559959270550407 -0.24859082874329635 0.9559959270550409 -0.2485908287432964 -0.0037018684478532095 0.021513185344581746
367700000.0 -0.0034467765005521036 0.021548185502137412 0.955384343096136 -0.25230696472835445 0.9553843430961363 -0.2523069647283545 -0.003446776500552108 0.0215481855021374
372600000.0 -0.0031951230618801284 0.021578455743881262 0.9547515211864328 -0.2560263475246741 0.9547515211864326 -0.25602634752467407 -0.0031951230618801263 0.02157845574388127
377500000.0 -0.002946961786885344 0.02160411734008249 0.9540972968564232 -0.25974862472684956 0.9540972968564232 -0.25974862472684956 -0.002946961786885348 0.021604117340082475
382400000.0 -0.0027023408072282917 0.021625300489054474 0.9534216736863191 -0.26347342885875563 0.9534216736863191 -0.26347342885875563 -0.0027023408072282887 0.021625300489054484
387300000.0 -0.00246130887143716 0.021642115320428017 0.9527246204644035 -0.26720045067941955 0.9527246204644035 -0.26720045067941955 -0.00246130887143716 0.021642115320428017
392200000.0 -0.0022239091751375395 0.02165468381651639 0.9520060419382949 -0.2709293598984274 0.9520060419382946 -0.2709293598984273 -0.0022239091751375395 0.02165468381651639
397100000.0 -0.001990179190377144 0.02166312603886323 0.9512659140115943 -0.27465979872184376 0.951265914011594 -0.2746597987218437 -0.0019901791903771493 0.021663126038863216
402000000.0 -0.001760150488379785 0.02166754706158224 0.9505042424633964 -0.27839139606922875 0.9505042424633964 -0.27839139606922875 -0.0017601504883797818 0.021667547061582252
406900000.0 -0.0015338628954729792 0.02166806517979149 0.9497209766695871 -0.28212389536234966 0.9497209766695874 -0.2821238953623498 -0.0015338628954729813 0.021668065179791484
411800000.0 -0.0013113400251171697 0.021664786834499128 0.9489161208225467 -0.2858569705209281 0.9489161208225465 -0.285856970520928 -0.0013113400251171675 0.021664786834499135
416700000.0 -0.0010926087296593322 0.02165783008936709 0.9480896930925726 -0.28959024102845876 0.9480896930925724 -0.2895902410284587 -0.0010926087296593292 0.021657830089367096
421600000.0 -0.000877689823644509 0.02164729157603289 0.9472416951027539 -0.2933234240987465 0.9472416951027538 -0.29332342409874645 -0.0008776898236445068 0.0216472915760329
426500000.0 -0.0006666030875459869 0.021633278084826953 0.9463721203570298 -0.29705623884207083 0.9463721203570294 -0.2970562388420707 -0.0006666030875459869 0.021633278084826953
431400000.0 -0.00045937315411331717 0.02161589636313716 0.9454810326432304 -0.3007883713319284 0.9454810326432304 -0.3007883713319284 -0.00045937315411331196 0.02161589636313718
436300000.0 -0.00025600719975608737 0.021595243494323294 0.9445683724921762 -0.30451946520178785 0.9445683724921758 -0.30451946520178774 -0.00025600719975609366 0.021595243494323277
441200000.0 -5.6518023280971616e-05 0.021571413683069876 0.9436343158108627 -0.3082492911535722 0.9436343158108627 -0.3082492911535722 -5.651802328098e-05 0.021571413683069852
446100000.0 0.0001390778351501872 0.021544515638993116 0.9426787852934685 -0.3119774947083026 0.9426787852934688 -0.3119774947083027 0.0001390778351501987 0.02154451563899315
451000000.0 0.0003307806077885752 0.021514631410203197 0.9417018821904202 -0.3157038256659512 0.9417018821904205 -0.31570382566595123 0.0003307806077885773 0.021514631410203208
455900000.0 0.0005185801362197521 0.02148185933612228 0.9407036818089036 -0.31942799412315326 0.9407036818089036 -0.31942799412315326 0.0005185801362197573 0.021481859336122296
460800000.0 0.0007024664317246178 0.02144628471501179 0.9396842301345879 -0.32314976698624354 0.9396842301345878 -0.32314976698624354 0.0007024664317246115 0.02144628471501177
465700000.0 0.0008824467387871368 0.021408000078971378 0.9386435476685098 -0.32686877739746173 0.9386435476685101 -0.3268687773974618 0.0008824467387871316 0.02140800007897136
470600000.0 0.0010585122927201796 0.021367085243445397 0.9375817776023846 -0.33058483197218275 0.9375817776023843 -0.33058483197218264 0.0010585122927201766 0.021367085243445386
475500000.0 0.00123067135014638 0.021323631873599706 0.936498902849749 -0.33429762081109377 0.9364989028497492 -0.3342976208110938 0.001230671350146386 0.021323631873599723
480400000.0 0.0013989184312150043 0.021277717057091843 0.9353950889703249 -0.33800692961515305 0.9353950889703249 -0.33800692961515305 0.0013989184312150126 0.021277717057091868
485300000.0 0.0015632568052969728 0.02122941945399514 0.9342704167191904 -0.3417124849744522 0.9342704167191902 -0.34171248497445217 0.0015632568052969822 0.021229419453995164
490200000.0 0.0017237002907482374 0.02117882077616955 0.9331249201447456 -0.3454140326174673 0.9331249201447455 -0.34541403261746717 0.0017237002907482407 0.021178820776169557
495100000.0 0.0018802406777381495 0.021125990374001865 0.9319587407452097 -0.3491113533904745 0.9319587407452095 -0.34911135339047444 0.0018802406777381619 0.0211259903740019
500000000.0 0.00203289964953749 0.021071010512116763 0.9307719342942414 -0.3528041712572751 0.9307719342942414 -0.3528041712572751 0.0020328996495374966 0.02107101051211678
