! Created with skrf 2.1.0 (http://scikit-rf.org).
# Hz S RI R 50.0 
!freq ReS11 ImS11 ReS12 ImS12 ReS13 ImS13
! ReS14 ImS14
! ReS21 ImS21 ReS22 ImS22 ReS23 ImS23
! ReS24 ImS24
! ReS31 ImS31 ReS32 ImS32 ReS33 ImS33
! ReS34 ImS34
! ReS41 ImS41 ReS42 ImS42 ReS43 ImS43
! ReS44 ImS44
!
10000000.0 0.00037448486307061656 0.00041334376060783885 0.996760397955212 -0.003586359273467085 -3.572512243388012e-06 2.28186987289406e-07 1.8362280281430953e-06 3.028589695798175e-07
 0.996760397955212 -0.003586359273467085 0.00037448486307061656 0.00041334376060783885 -3.572512243388012e-06 2.28186987289406e-07 -6.3030144668661075e-06 1.6782578380844153e-07
 -3.572512243388012e-06 2.28186987289406e-07 -3.572512243388012e-06 2.28186987289406e-07 0.0004894890207368969 0.0004201940973932911 0.99543155073022 -0.00440478455514212
 2.6901015988822318e-06 3.0569716555543654e-07 -6.3030144668661075e-06 1.6782578380844153e-07 0.99543155073022 -0.00440478455514212 0.0004894890207368969 0.0004201940973932911
15081632.653061224 0.00037468141761131887 0.0006234270135536972 0.9967590671505538 -0.005409129651555845 -3.5635507984103173e-06 3.4387023863508565e-07 1.833312496756702e-06 4.5710071923436104e-07
 0.9967590671505538 -0.005409129651555845 0.00037468141761131887 0.0006234270135536972 -3.5635507984103173e-06 3.4387023863508565e-07 -6.2904498563449766e-06 2.529161297354022e-07
 -3.5635507984103173e-06 3.4387023863508565e-07 -3.5635507984103173e-06 3.4387023863508565e-07 0.0004897961126563572 0.0006337689723336539 0.9954289313466613 -0.00664358690488861
 2.6862276473396833e-06 4.6137890228090546e-07 -6.2904498563449766e-06 2.529161297354022e-07 0.9954289313466613 -0.00664358690488861 0.0004897961126563572 0.0006337689723336539
20163265.30612245 0.0003749614295258917 0.0008335552516378816 0.9967571712376474 -0.007232280940566035 -3.550984709697911e-06 4.592227053368911e-07 1.8292403158481083e-06 6.117544258259895e-07
 0.9967571712376474 -0.007232280940566035 0.0003749614295258917 0.0008335552516378816 -3.550984709697911e-06 4.592227053368911e-07 -6.272829787068169e-06 3.3777320662701325e-07
 -3.550984709697911e-06 4.592227053368911e-07 -3.550984709697911e-06 4.592227053368911e-07 0.0004902324066523024 0.0008474015801581336 0.9954252132275296 -0.008882937736046764
 2.680811015059694e-06 6.174698305913711e-07 -6.272829787068169e-06 3.3777320662701325e-07 0.9954252132275296 -0.008882937736046764 0.0004902324066523024 0.0008474015801581336
25244897.95918367 0.00037532873144567635 0.0010437433628978558 0.9967546842173166 -0.00905593945991476 -3.5348407261294793e-06 5.741347314239095e-07 1.824036368023399e-06 7.669567298418509e-07
 0.9967546842173166 -0.00905593945991476 0.00037532873144567635 0.0010437433628978558 -3.5348407261294793e-06 5.741347314239095e-07 -6.250190275136601e-06 4.2231976228252516e-07
 -3.5348407261294793e-06 5.741347314239095e-07 -3.5348407261294793e-06 5.741347314239095e-07 0.0004908026943870491 0.0010611110105415694 0.9954203588250409 -0.011123018889736495
 2.6738789260836186e-06 7.741056694534908e-07 -6.250190275136601e-06 4.2231976228252516e-07 0.9954203588250409 -0.011123018889736495 0.0004908026943870491 0.0010611110105415694
30326530.612244897 0.0003757882316071397 0.0012540060044307253 0.9967515727895169 -0.010880229792273153 -3.5151531093763358e-06 6.884982035978226e-07 1.8177325234835234e-06 9.228424152606349e-07
 0.9967515727895169 -0.010880229792273153 0.0003757882316071397 0.0012540060044307253 -3.5151531093763358e-06 6.884982035978226e-07 -6.222577454166027e-06 5.064796984224294e-07
 -3.5151531093763358e-06 6.884982035978226e-07 -3.5151531093763358e-06 6.884982035978226e-07 0.0004915131119009332 0.001274916041963952 0.9954143200481249 -0.013364009664478963
 2.6654662506442028e-06 9.31420290112149e-07 -6.222577454166027e-06 5.064796984224294e-07 0.9954143200481249 -0.013364009664478963 0.0004915131119009332 0.001274916041963952
35408163.26530612 0.0003763458918053307 0.0014643575467613004 0.9967477964996501 -0.01270527436508364 -3.491963484405118e-06 8.022069228051625e-07 1.810367500193898e-06 1.079543962172296e-06
 0.9967477964996501 -0.01270527436508364 0.0003763458918053307 0.0014643575467613004 -3.491963484405118e-06 8.022069228051625e-07 -6.190047375406064e-06 5.90178348536815e-07
 -3.491963484405118e-06 8.022069228051625e-07 -3.491963484405118e-06 8.022069228051625e-07 0.0004923711117707534 0.0014888350667592828 0.9954070384741607 -0.01560608620355191
 2.6556153529725347e-06 1.0895452708325633e-06 -6.190047375406064e-06 5.90178348536815e-07 0.9954070384741607 -0.01560608620355191 0.0004923711117707534 0.0014888350667592828
40489795.91836734 0.0003770087007641006 0.0016748120198986738 0.9967433079153216 -0.014531193044703844 -3.465320658874085e-06 9.151569644979035e-07 1.801986694963053e-06 1.2371911128687152e-06
 0.9967433079153216 -0.014531193044703844 0.0003770087007641006 0.0016748120198986738 -3.465320658874085e-06 9.151569644979035e-07 -6.1526657662666105e-06 6.733427472148704e-07
 -3.465320658874085e-06 9.151569644979035e-07 -3.465320658874085e-06 9.151569644979035e-07 0.0004933854294771736 0.0017028860184494655 0.9953984456047511 -0.01784942090083894
 2.644375907440256e-06 1.2486094650528347e-06 -6.1526657662666105e-06 6.733427472148704e-07 0.9953984456047511 -0.01784942090083894 0.0004933854294771736 0.0017028860184494655
45571428.57142857 0.00037778464311925494 0.0018853830613841907 0.9967380528321889 -0.016358102745441683 -3.4352804127992726e-06 1.0272470255521256e-06 1.7926419867200687e-06 1.3959104538233657e-06
 0.9967380528321889 -0.016358102745441683 0.00037778464311925494 0.0018853830613841907 -3.4352804127992726e-06 1.0272470255521256e-06 -6.110507749090413e-06 7.559018894267715e-07
 -3.4352804127992726e-06 1.0272470255521256e-06 -3.4352804127992726e-06 1.0272470255521256e-06 0.0004945660442371826 0.001917086301771348 0.9953884631636007 -0.02009418182849349
 2.631804684439868e-06 1.4087385853541007e-06 -6.110507749090413e-06 7.559018894267715e-07 0.9953884631636007 -0.02009418182849349 0.0004945660442371826 0.001917086301771348
50653061.22448979 0.00037868266425966515 0.002096083866614365 0.9967319705073392 -0.018186117055607926 -3.4019052600783963e-06 1.1383787559438277e-06 1.7823915134786324e-06 1.5558250158245468e-06
 0.9967319705073392 -0.018186117055607926 0.00037868266425966515 0.002096083866614365 -3.4019052600783963e-06 1.1383787559438277e-06 -6.0636575222930505e-06 8.377869783267106e-07
 -3.4019052600783963e-06 1.1383787559438277e-06 -3.4019052600783963e-06 1.1383787559438277e-06 0.000495924134603372 0.002131452725783643 0.9953770034342342 -0.022340532189525725
 2.617965307621362e-06 1.570054805502644e-06 -6.0636575222930505e-06 8.377869783267106e-07 0.9953770034342342 -0.022340532189525725 0.000495924134603372 0.002131452725783643
55734693.87755102 0.0003797126312809502 0.0023069271417029058 0.9967249939184619 -0.02001534588254031 -3.3652641836528265e-06 1.2484570734267392e-06 1.771299424656123e-06 1.7170538943529682e-06
 0.9967249939184619 -0.02001534588254031 0.0003797126312809502 0.0023069271417029058 -3.3652641836528265e-06 1.2484570734267392e-06 -6.0122080062486595e-06 9.189316602557957e-07
 -3.3652641836528265e-06 1.2484570734267392e-06 -3.3652641836528265e-06 1.2484570734267392e-06 0.000497472029158627 0.0023460014404064968 0.9953639696350266 -0.024588629798181813
 2.6029279842997776e-06 1.7326763826453163e-06 -6.0122080062486595e-06 9.189316602557957e-07 0.9953639696350266 -0.024588629798181813 0.000497472029158627 0.0023460014404064968
60816326.530612245 0.00038088529034929075 0.002517925059116194 0.9967170500468913 -0.021845895118385594 -3.3254323462594074e-06 1.3573904596177364e-06 1.7594356105763977e-06 1.8797118921035357e-06
 0.9967170500468913 -0.021845895118385594 0.00038088529034929075 0.002517925059116194 -3.3254323462594074e-06 1.3573904596177364e-06 -5.956260456529197e-06 9.99272245744619e-07
 -3.3254323462594074e-06 1.3573904596177364e-06 -3.3254323462594074e-06 1.3573904596177364e-06 0.0004992231526710173 0.002560747876714772 0.9953492563287837 -0.02683862659072534
 2.5867692110226973e-06 1.8967173015494812e-06 -5.956260456529197e-06 9.99272245744619e-07 0.9953492563287837 -0.02683862659072534 0.0004992231526710173 0.002560747876714772
65897959.183673464 0.000382212220777871 0.0027290892162973096 0.9967080601824614 -0.02367786632822323 -3.2824907788730997e-06 1.4650912360681183e-06 1.746875411125125e-06 2.0439091853457764e-06
 0.9967080601824614 -0.02367786632822323 0.000382212220777871 0.0027290892162973096 -3.2824907788730997e-06 1.4650912360681183e-06 -5.895924047303759e-06 1.0787479154456651e-06
 -3.2824907788730997e-06 1.4650912360681183e-06 -3.2824907788730997e-06 1.4650912360681183e-06 0.0005011919681093958 0.0027757066912748323 0.995332749863885 -0.029090668168944227
 2.5695714564389364e-06 2.0622869425742803e-06 -5.895924047303759e-06 1.0787479154456651e-06 0.995332749863885 -0.029090668168944227 0.0005011919681093958 0.0027757066912748323
70979591.83673468 0.0003837057861541659 0.0029404305974641285 0.9966979402479981 -0.02551135646191565 -3.2365260490661916e-06 1.5714758190819548e-06 1.733699305643111e-06 2.2097510155996878e-06
 0.9966979402479981 -0.02551135646191565 0.0003837057861541659 0.0029404305974641285 -3.2365260490661916e-06 1.5714758190819548e-06 -5.83131542787186e-06 1.1573009100634902e-06
 -3.2365260490661916e-06 1.5714758190819548e-06 -3.2365260490661916e-06 1.5714758190819548e-06 0.0005033939149253487 0.0029908917147728055 0.9953143288438301 -0.0313448933784137
 2.5514228237369836e-06 2.2294897748432462e-06 -5.83131542787186e-06 1.1573009100634902e-06 0.9953143288438301 -0.0313448933784137 0.0005033939149253487 0.0029908917147728055
76061224.48979592 0.00038537908285341926 0.0031519595387343104 0.996686601141158 -0.027346457590857097 -3.1876299116104075e-06 1.6764649522327806e-06 1.719992586237345e-06 2.37733740787756e-06
 0.996686601141158 -0.027346457590857097 0.00038537908285341926 0.0031519595387343104 -3.1876299116104075e-06 1.6764649522327806e-06 -5.7625582554385415e-06 1.2348767034939863e-06
 -3.1876299116104075e-06 1.6764649522327806e-06 -3.1876299116104075e-06 1.6764649522327806e-06 0.0005058453440453648 0.0032063159051459547 0.9952938646218928 -0.0336014339232255
 2.5324166950235405e-06 2.3984250758630438e-06 -5.7625582554385415e-06 1.2348767034939863e-06 0.9952938646218928 -0.0336014339232255 0.0005058453440453648 0.0032063159051459547
81142857.14285713 0.000387245886302525 0.0033636856967079265 0.9966739490912668 -0.029183256670577612 -3.135898943723193e-06 1.7799839157253443e-06 1.7058450167596739e-06 2.5467629165105843e-06
 0.9966739490912668 -0.029183256670577612 0.000387245886302525 0.0033636856967079265 -3.135898943723193e-06 1.7799839157253443e-06 -5.689782707339614e-06 1.3114241585314008e-06
 -3.135898943723193e-06 1.7799839157253443e-06 -3.135898943723193e-06 1.7799839157253443e-06 0.0005085634500191159 0.0034219913053909643 0.9952712218174691 -0.03586041401859036
 2.5126513600899056e-06 2.569186678602505e-06 -5.689782707339614e-06 1.3114241585314008e-06 0.9952712218174691 -0.03586041401859036 0.0005085634500191159 0.0034219913053909643
86224489.79591836 0.0003893205953515225 0.003575618020606515 0.9966598860287463 -0.031021835329930185 -3.081434167409254e-06 1.8819627119462752e-06 1.6913504797498012e-06 2.7181163993431485e-06
 0.9966598860287463 -0.031021835329930185 0.0003893205953515225 0.003575618020606515 -3.081434167409254e-06 1.8819627119462752e-06 -5.61312497599188e-06 1.3868956646502701e-06
 -3.081434167409254e-06 1.8819627119462752e-06 -3.081434167409254e-06 1.8819627119462752e-06 0.0005115662007842322 0.00363792900618182 0.9952462588506453 -0.03812195008237676
 2.4922296320637388e-06 2.7418627468111697e-06 -5.61312497599188e-06 1.3868956646502701e-06 0.9952462588506453 -0.03812195008237676 0.0005115662007842322 0.00363792900618182
91306122.44897959 0.00039161817512037023 0.00378776472803219 0.996644309964715 -0.03286226968737949 -3.0243406613732692e-06 1.982336226745599e-06 1.6766066136620305e-06 2.891480820843676e-06
 0.996644309964715 -0.03286226968737949 0.00039161817512037023 0.00378776472803219 -3.0243406613732692e-06 1.982336226745599e-06 -5.53272674987637e-06 1.461247257518999e-06
 -3.0243406613732692e-06 1.982336226745599e-06 -3.0243406613732692e-06 1.982336226745599e-06 0.0005148722655057352 0.003854139113386333 0.9952188284914708 -0.04038615046634832
 2.4712584524694596e-06 2.916535579123604e-06 -5.53272674987637e-06 1.461247257518999e-06 0.9952188284914708 -0.04038615046634832 0.0005148722655057352 0.003854139113386333
96387755.10204081 0.0003941540986914897 0.004000133284392337 0.996627115378321 -0.0347046301946878 -2.9647271649798134e-06 2.081044366185859e-06 1.6617144426958536e-06 3.0669330844480067e-06
 0.996627115378321 -0.0347046301946878 0.0003941540986914897 0.004000133284392337 -2.9647271649798134e-06 2.081044366185859e-06 -5.448734683863e-06 1.5344387200482414e-06
 -2.9647271649798134e-06 2.081044366185859e-06 -2.9647271649798134e-06 2.081044366185859e-06 0.0005185009409615625 0.0040706307205375875 0.9951887784204245 -0.04265311522752657
 2.4498484882206165e-06 3.0932814422637863e-06 -5.448734683863e-06 1.5344387200482414e-06 0.9951887784204245 -0.04265311522752657 0.0005185009409615625 0.0040706307205375875
101469387.75510204 0.00039694428800258786 0.004212730385995501 0.996608193609409 -0.036548981508079004 -2.902705676713509e-06 2.178032168686448e-06 1.646778001528336e-06 3.244543894224789e-06
 0.996608193609409 -0.036548981508079004 0.00039694428800258786 0.004212730385995501 -2.902705676713509e-06 2.178032168686448e-06 -5.361299862154286e-06 1.6064336649215978e-06
 -2.902705676713509e-06 2.178032168686448e-06 -2.902705676713509e-06 2.178032168686448e-06 0.0005224720769269966 0.004287411886276025 0.9951559517965898 -0.04492293593980212
 2.428113723043811e-06 3.2721704334387215e-06 -5.361299862154286e-06 1.6064336649215978e-06 0.9951559517965898 -0.04492293593980212 0.0005224720769269966 0.004287411886276025
106551020.40816326 0.0004000050543059722 0.004425561946804751 0.996587433254164 -0.03839538238675711 -2.838391049546972e-06 2.273249892674539e-06 1.6319039572037324e-06 3.4243776457333153e-06
 0.996587433254164 -0.03839538238675711 0.0004000050543059722 0.004425561946804751 -2.838391049546972e-06 2.273249892674539e-06 -5.270577257065152e-06 1.677199598694188e-06
 -2.838391049546972e-06 2.273249892674539e-06 -2.838391049546972e-06 2.273249892674539e-06 0.0005268060010087914 0.0045044896167337175 0.9951201878301259 -0.047195695545617505
 2.4061710457876418e-06 3.453266371791674e-06 -5.270577257065152e-06 1.677199598694188e-06 0.9951201878301259 -0.047195695545617505 0.0005268060010087914 0.0045044896167337175
111632653.06122449 0.00040335303853461334 0.004638633088806571 0.9965647205614315 -0.04024388561846868 -2.7719005855580096e-06 2.366653080029794e-06 1.6172012303739546e-06 3.6064923457357428e-06
 0.9965647205614315 -0.04024388561846868 0.00040335303853461334 0.004638633088806571 -2.7719005855580096e-06 2.366653080029794e-06 -5.176725186767734e-06 1.7467079676774529e-06
 -2.7719005855580096e-06 2.366653080029794e-06 -2.7719005855580096e-06 2.366653080029794e-06 0.000531523443370039 0.0047218698528104265 0.9950813223557153 -0.04947146824725316
 2.3841398380025547e-06 3.636626718578812e-06 -5.176725186767734e-06 1.7467079676774529e-06 0.9950813223557153 -0.04947146824725316 0.000531523443370039 0.0047218698528104265
116714285.7142857 0.000407005151910974 0.00485194813592373 0.9965399398275034 -0.04209453797159808 -2.703353632052543e-06 2.4582025957749837e-06 1.602780618003317e-06 3.790939560228482e-06
 0.9965399398275034 -0.04209453797159808 0.000407005151910974 0.00485194813592373 -2.703353632052543e-06 2.4582025957749837e-06 -5.079904775016348e-06 1.8149341859525764e-06
 -2.703353632052543e-06 2.4582025957749837e-06 -2.703353632052543e-06 2.4582025957749837e-06 0.0005366454617649109 0.00493955746224371 0.9950391884037817 -0.051750319436979365
 2.3621415630908916e-06 3.822302525535911e-06 -5.079904775016348e-06 1.8149341859525764e-06 0.9950391884037817 -0.051750319436979365 0.0005366454617649109 0.00493955746224371
121795918.36734693 0.0004109785171173201 0.005065510611386794 0.9965129737872596 -0.04394738017312892 -2.632871181347389e-06 2.5478646446187502e-06 1.5887544195555273e-06 3.977764390074888e-06
 0.9965129737872596 -0.04394738017312892 0.0004109785171173201 0.005065510611386794 -2.632871181347389e-06 2.5478646446187502e-06 -4.980279415731648e-06 1.8818576459712551e-06
 -2.632871181347389e-06 2.5478646446187502e-06 -2.632871181347389e-06 2.5478646446187502e-06 0.0005421933672885228 0.005157556236351866 0.9949936167664218 -0.05403230566509413
 2.34029935922192e-06 4.010338410720312e-06 -4.980279415731648e-06 1.8818576459712551e-06 0.9949936167664218 -0.05403230566509413 0.0005421933672885228 0.005157556236351866
126877551.02040815 0.00041529041032669945 0.0052793232384496305 0.9964837039996661 -0.04580244691163478 -2.560575476250077e-06 2.6356107650976373e-06 1.5752360685708756e-06 4.167005473353637e-06
 0.9964837039996661 -0.04580244691163478 0.00041529041032669945 0.0052793232384496305 -2.560575476250077e-06 2.6356107650976373e-06 -4.878014245166253e-06 1.947461712308478e-06
 -2.560575476250077e-06 2.6356107650976373e-06 -2.560575476250077e-06 2.6356107650976373e-06 0.0005481886512185411 0.005375868891304204 0.994944436555168 -0.05631747464461983
 2.3187376380875674e-06 4.200772560946507e-06 -4.878014245166253e-06 1.947461712308478e-06 0.994944436555168 -0.05631747464461983 0.0005481886512185411 0.005375868891304204
131959183.67346938 0.00041995820438360385 0.0054933879443191235 0.9964520112257675 -0.04765976686433158 -2.4865896231425647e-06 2.7214178021917953e-06 1.5623397714194814e-06 4.358695013385114e-06
 0.9964520112257675 -0.04765976686433158 0.00041995820438360385 0.0054933879443191235 -2.4865896231425647e-06 2.7214178021917953e-06 -4.7732756242006665e-06 2.0117336992279545e-06
 -2.4865896231425647e-06 2.7214178021917953e-06 -2.4865896231425647e-06 2.7214178021917953e-06 0.0005546529133112603 0.005594497073732081 0.9948914757478717 -0.05860586529124183
 2.297581691441732e-06 4.393636759781954e-06 -4.7732756242006665e-06 2.0117336992279545e-06 0.9948914757478717 -0.05860586529124183 0.0005546529133112603 0.005594497073732081
137040816.3265306 0.0004249993133839859 0.005707705867152129 0.9964177757974301 -0.04951936274708851 -2.4110372144351183e-06 2.805267859401864e-06 1.5501801548844782e-06 4.552858831264241e-06
 0.9964177757974301 -0.04951936274708851 0.0004249993133839859 0.005707705867152129 -2.4110372144351183e-06 2.805267859401864e-06 -4.666230633130118e-06 2.0746648328059223e-06
 -2.4110372144351183e-06 2.805267859401864e-06 -2.4110372144351183e-06 2.805267859401864e-06 0.0005616077918768541 0.005813441370489673 0.9948345617222029 -0.06089750779686963
 2.276957307222338e-06 4.588956439936693e-06 -4.666230633130118e-06 2.0746648328059223e-06 0.9948345617222029 -0.06089750779686963 0.0005616077918768541 0.005813441370489673
142122448.97959185 0.00043043113890694384 0.005922277365957473 0.996380877975266 -0.05138125138619 -2.334041962007124e-06 2.8871482313726344e-06 1.5388719240892538e-06 4.7495164416109046e-06
 0.996380877975266 -0.05138125138619 0.00043043113890694384 0.005922277365957473 -2.334041962007124e-06 2.8871482313726344e-06 -4.5570465811035795e-06 2.1362501984329395e-06
 -2.334041962007124e-06 2.8871482313726344e-06 -2.334041962007124e-06 2.8871482313726344e-06 0.0005690748959386931 0.006032701322341075 0.9947735217734734 -0.06319242373505912
 2.2569903969032662e-06 4.786750758763607e-06 -4.5570465811035795e-06 2.1362501984329395e-06 0.9947735217734734 -0.06319242373505912 0.0005690748959386931 0.006032701322341075
147204081.63265306 0.0004362710181015271 0.006137102033230019 0.9963411982942982 -0.053245443810548916 -2.2557273430960934e-06 2.9670513182322723e-06 1.5285295321365498e-06 4.948681150150497e-06
 0.9963411982942982 -0.053245443810548916 0.0004362710181015271 0.006137102033230019 -2.2557273430960934e-06 2.9670513182322723e-06 -4.4458905321683826e-06 2.1964886745759014e-06
 -2.2557273430960934e-06 2.9670513182322723e-06 -2.2557273430960934e-06 2.9670513182322723e-06 0.0005770757397462136 0.00625227544133884 0.9947081836147146 -0.06549062619638239
 2.2378066355647736e-06 4.987032695487924e-06 -4.4458905321683826e-06 2.1964886745759014e-06 0.9947081836147146 -0.06549062619638239 0.0005770757397462136 0.00625227544133884
152285714.28571427 0.00044253617383282974 0.0063521787101288195 0.9962986178960912 -0.055111945362988746 -2.1762162599361593e-06 3.0449745228837935e-06 1.5192668626776324e-06 5.150360171655541e-06
 0.9962986178960912 -0.055111945362988746 0.00044253617383282974 0.0063521787101288195 -2.1762162599361593e-06 3.0449745228837935e-06 -4.332928849660299e-06 2.2553828537334988e-06
 -2.1762162599361593e-06 3.0449745228837935e-06 -2.1762162599361593e-06 3.0449745228837935e-06 0.0005856316798922466 0.0064721612316410515 0.9946383758571619 -0.06779211995173098
 2.2195311160074546e-06 5.18980916870318e-06 -4.332928849660299e-06 2.2553828537334988e-06 0.9946383758571619 -0.06779211995173098 0.0005856316798922466 0.0064721612316410515
157367346.9387755 0.00044924366704506534 0.006567505504010657 0.9962530188462378 -0.056980755829164995 -2.0956307142853156e-06 3.1209201325389965e-06 1.511196926477566e-06 5.354554766716421e-06
 0.9962530188462378 -0.056980755829164995 0.00044924366704506534 0.006567505504010657 -2.0956307142853156e-06 3.1209201325389965e-06 -4.21832676046243e-06 2.312938951558641e-06
 -2.0956307142853156e-06 3.1209201325389965e-06 -2.0956307142853156e-06 3.1209201325389965e-06 0.0005947638552372592 0.006692355213512763 0.994563928469534 -0.07009690164144342
 2.202288018070147e-06 5.395081172608741e-06 -4.21832676046243e-06 2.312938951558641e-06 0.994563928469534 -0.07009690164144342 0.0005947638552372592 0.006692355213512763
162448979.59183672 0.0004564103514919866 0.0067830798081185495 0.9962042844362389 -0.05885186958263817 -2.0140914978182883e-06 3.194895185823649e-06 1.5044315728907607e-06 5.561260395762539e-06
 0.9962042844362389 -0.05885186958263817 0.0004564103514919866 0.0067830798081185495 -2.0140914978182883e-06 3.194895185823649e-06 -4.102247940439457e-06 2.369166705150315e-06
 -2.0140914978182883e-06 3.194895185823649e-06 -2.0140914978182883e-06 3.194895185823649e-06 0.0006044931298282644 0.006912852950234916 0.9944846732147155 -0.0724049599880934
 2.186200294146495e-06 5.6028439304169035e-06 -4.102247940439457e-06 2.369166705150315e-06 0.9944846732147155 -0.0724049599880934 0.0006044931298282644 0.006912852950234916
167530612.24489796 0.00046405283095615535 0.006998898323224523 0.9961522994689823 -0.060725275744595526 -1.9317178992011537e-06 3.2669113268077736e-06 1.499081217009751e-06 5.770466888725732e-06
 0.9961522994689823 -0.060725275744595526 0.00046405283095615535 0.006998898323224523 -1.9317178992011537e-06 3.2669113268077736e-06 -3.9848541221389015e-06 2.424079261536086e-06
 -1.9317178992011537e-06 3.2669113268077736e-06 -1.9317178992011537e-06 3.2669113268077736e-06 0.000614840038966554 0.007133649077654338 0.9944004440627009 -0.07471627603072563
 2.171389371730636e-06 5.813087063328664e-06 -3.9848541221389015e-06 2.424079261536086e-06 0.9944004440627009 -0.07471627603072563 0.000614840038966554 0.007133649077654338
172612244.89795917 0.0004721874190472155 0.007214957081021344 0.996096950527173 -0.0626009583566977 -1.848627428505887e-06 3.3369846473264527e-06 1.4952545831027178e-06 5.982158628723476e-06
 0.996096950527173 -0.0626009583566977 0.0004721874190472155 0.007214957081021344 -1.848627428505887e-06 3.3369846473264527e-06 -3.866304725640356e-06 2.4776930573750706e-06
 -1.848627428505887e-06 3.3369846473264527e-06 -1.848627428505887e-06 3.3369846473264527e-06 0.0006258247385381983 0.00735473733609499 0.9943110775788543 -0.07703082337831176
 2.1579748736622355e-06 6.025794773462842e-06 -3.866304725640356e-06 2.4776930573750706e-06 0.9943110775788543 -0.07703082337831176 0.0006258247385381983 0.00735473733609499
177693877.55102038 0.0004808301016612734 0.007431251469060308 0.9960381262242272 -0.06447889656552928 -1.7649355594701784e-06 3.405135518956004e-06 1.4930584648113297e-06 6.196314748140283e-06
 0.9960381262242272 -0.06447889656552928 0.0004808301016612734 0.007431251469060308 -1.7649355594701784e-06 3.405135518956004e-06 -3.7467565132290885e-06 2.5300276909106627e-06
 -1.7649355594701784e-06 3.405135518956004e-06 -1.7649355594701784e-06 3.405135518956004e-06 0.0006374669577139377 0.00757611060435431 0.9942164132867782 -0.0793485684801971
 2.1460743565842734e-06 6.240946039124251e-06 -3.7467565132290885e-06 2.5300276909106627e-06 0.9942164132867782 -0.0793485684801971 0.0006374669577139377 0.00757611060435431
182775510.20408162 0.0004899965021484004 0.00764777625703509 0.9959757174372696 -0.06635906481714847 -1.6807554899602714e-06 3.4713884159981867e-06 1.4925975024428478e-06 6.412909335500145e-06
 0.9959757174372696 -0.06635906481714847 0.0004899965021484004 0.00764777625703509 -1.6807554899602714e-06 3.4713884159981867e-06 -3.626363268373523e-06 2.581105787192988e-06
 -1.6807554899602714e-06 3.4713884159981867e-06 -1.6807554899602714e-06 3.4713884159981867e-06 0.0006497859550707872 0.0077977609355151635 0.9941162940052859 -0.08166947091133596
 2.135803067977677e-06 6.458514820810791e-06 -3.626363268373523e-06 2.581105787192988e-06 0.9941162940052859 -0.08166947091133596 0.0006497859550707872 0.0077977609355151635
187857142.85714284 0.0004997018492228311 0.007864525624208822 0.9959096175220382 -0.06824143306025088 -1.5961979208544762e-06 3.5357717308022353e-06 1.4939739775584899e-06 6.631911651549111e-06
 0.9959096175220382 -0.06824143306025088 0.0004997018492228311 0.007864525624208822 -1.5961979208544762e-06 3.5357717308022353e-06 -3.5052754992989364e-06 2.6309528575736724e-06
 -1.5961979208544762e-06 3.5357717308022353e-06 -1.5961979208544762e-06 3.5357717308022353e-06 0.0006628004781845419 0.008019679594299911 0.9940105661591655 -0.08399348367013233
 2.1272737219930773e-06 6.678470276385797e-06 -3.5052754992989364e-06 2.6309528575736724e-06 0.9940105661591655 -0.08399348367013233 0.0006628004781845419 0.008019679594299911
192938775.51020408 0.0005099609476257684 0.008081493187795824 0.9958397225095997 -0.0701259669565044 -1.511370853432613e-06 3.598317582722801e-06 1.4972876249363312e-06 6.853286353006362e-06
 0.9958397225095997 -0.0701259669565044 0.0005099609476257684 0.008081493187795824 -1.511370853432613e-06 3.598317582722801e-06 -3.3836401672725005e-06 2.679597154451569e-06
 -1.511370853432613e-06 3.598317582722801e-06 -1.511370853432613e-06 3.598317582722801e-06 0.0006765287267056392 0.008241857095707026 0.9938990800636281 -0.08632055348678426
 2.1205962941656538e-06 6.900776983880742e-06 -3.3836401672725005e-06 2.679597154451569e-06 0.9938990800636281 -0.08632055348678426 0.0006765287267056392 0.008241857095707026
198020408.1632653 0.0005207881515380342 0.008298672032107362 0.9957659312849235 -0.07201262809665068 -1.4263794052327157e-06 3.6590616219706488e-06 1.5026354618707876e-06 7.076993722488699e-06
 0.9957659312849235 -0.07201262809665068 0.0005207881515380342 0.008298672032107362 -1.4263794052327157e-06 3.6590616219706488e-06 -3.261600439549729e-06 2.7270695222168145e-06
 -1.4263794052327157e-06 3.6590616219706488e-06 -1.4263794052327157e-06 3.6590616219706488e-06 0.000690988318910199 0.008464283244676801 0.9937816901824853 -0.0886506211400637
 2.1158778349725177e-06 7.125395170440025e-06 -3.261600439549729e-06 2.7270695222168145e-06 0.9937816901824853 -0.0886506211400637 0.000690988318910199 0.008464283244676801
203102040.81632653 0.0005321973407125146 0.008516054738280831 0.9956881457474664 -0.0739013742210289 -1.3413256442221056e-06 3.7180428295657935e-06 1.5101116346637056e-06 7.302989903171664e-06
 0.9956881457474664 -0.0739013742210289 0.0005321973407125146 0.008516054738280831 -1.3413256442221056e-06 3.7180428295657935e-06 -3.139295466779194e-06 2.7734032453049655e-06
 -1.3413256442221056e-06 3.7180428295657935e-06 -1.3413256442221056e-06 3.7180428295657935e-06 0.0007061962616955963 0.00868694717653893 0.9936582553602874 -0.09098362178056628
 2.1132223020754556e-06 7.352280945977541e-06 -3.139295466779194e-06 2.7734032453049655e-06 0.9936582553602874 -0.09098362178056628 0.0007061962616955963 0.00868694717653893
208183673.46938774 0.0005442018992976204 0.008733633414421793 0.9956062709540183 -0.07579215944323119 -1.2563084410247954e-06 3.7753033145480325e-06 1.5198072820633017e-06 7.5312271368137905e-06
 0.9956062709540183 -0.07579215944323119 0.0005442018992976204 0.008733633414421793 -1.2563084410247954e-06 3.7753033145480325e-06 -3.016860184522352e-06 2.818633894231686e-06
 -1.2563084410247954e-06 3.7753033145480325e-06 -1.2563084410247954e-06 3.7753033145480325e-06 0.0007221689239717239 0.008909837398011567 0.9935286390287827 -0.09331948525854225
 2.1127304109851557e-06 7.581386540177647e-06 -3.016860184522352e-06 2.818633894231686e-06 0.9935286390287827 -0.09331948525854225 0.0007221689239717239 0.008909837398011567
213265306.12244898 0.0005568146972880614 0.00895139972599385 0.9955202152441591 -0.07768493447567147 -1.1714233388523994e-06 3.830888109540927e-06 1.5318104153188809e-06 7.761654003841564e-06
 0.9955202152441591 -0.07768493447567147 0.0005568146972880614 0.00895139972599385 -1.1714233388523994e-06 3.830888109540927e-06 -2.894425138418334e-06 2.862799170433829e-06
 -1.1714233388523994e-06 3.830888109540927e-06 -1.1714233388523994e-06 3.830888109540927e-06 0.0007389220133855624 0.009132941828528255 0.9933927093882094 -0.09565813645452023
 2.1144995037860235e-06 7.812660541543999e-06 -2.894425138418334e-06 2.862799170433829e-06 0.9933927093882094 -0.09565813645452023 0.0007389220133855624 0.009132941828528255
218346938.7755102 0.0005700480745452812 0.009169344926302983 0.9954298903487618 -0.07957964685591362 -1.0867624407007095e-06 3.884844965701382e-06 1.5462058144389465e-06 7.994215664267372e-06
 0.9954298903487618 -0.07957964685591362 0.0005700480745452812 0.009169344926302983 -1.0867624407007095e-06 3.884844965701382e-06 -2.7721163324101224e-06 2.905938750694624e-06
 -1.0867624407007095e-06 3.884844965701382e-06 -1.0867624407007095e-06 3.884844965701382e-06 0.000756470556286935 0.009356247841685357 0.9932503395640347 -0.09799949561103606
 2.1186234354741266e-06 8.04604813727424e-06 -2.7721163324101224e-06 2.905938750694624e-06 0.9932503395640347 -0.09799949561103606 0.000756470556286935 0.009356247841685357
223428571.4285714 0.0005839138273082597 0.009387459886932759 0.9953352114820385 -0.08147624117268608 -1.0024143132992106e-06 3.937224148020641e-06 1.5630749401706893e-06 8.228854098292857e-06
 0.9953352114820385 -0.08147624117268608 0.0005839138273082597 0.009387459886932759 -1.0024143132992106e-06 3.937224148020641e-06 -2.650055099348192e-06 2.948094131880567e-06
 -1.0024143132992106e-06 3.937224148020641e-06 -1.0024143132992106e-06 3.937224148020641e-06 0.0007748288808458306 0.00957974230661491 0.993101407739885 -0.1003434786638925
 2.1251924773845412e-06 8.28149135281794e-06 -2.650055099348192e-06 2.948094131880567e-06 0.993101407739885 -0.1003434786638925 0.0007748288808458306 0.00957974230661491
228510204.08163264 0.0005984231971072073 0.009605735127993842 0.9952360974177059 -0.08337465929058058 -9.184639072355075e-07 3.9880782318732235e-06 1.5824958611574512e-06 8.465508345531211e-06
 0.9952360974177059 -0.08337465929058058 0.0005984231971072073 0.009605735127993842 -9.184639072355075e-07 3.9880782318732235e-06 -2.5283579932008317e-06 2.989308476665286e-06
 -9.184639072355075e-07 3.9880782318732235e-06 -9.184639072355075e-07 3.9880782318732235e-06 0.0007940106032132069 0.009803411629099224 0.9929457972674768 -0.10268999757148346
 2.134293237118096e-06 8.518929290056407e-06 -2.5283579932008317e-06 2.989308476665286e-06 0.9929457972674768 -0.10268999757148346 0.0007940106032132069 0.009803411629099224
233591836.73469386 0.0006135868619873286 0.009824160848069667 0.9951324705498876 -0.08527484057251516 -8.349924926215487e-07 4.037461901640141e-06 1.6045431956789979e-06 8.704114741865974e-06
 0.9951324705498876 -0.08527484057251516 0.0006135868619873286 0.009824160848069667 -8.349924926215487e-07 4.037461901640141e-06 -2.4071367020261265e-06 3.0296264608627476e-06
 -8.349924926215487e-07 4.037461901640141e-06 -8.349924926215487e-07 4.037461901640141e-06 0.000814028616595645 0.01002724179226511 0.9927833967544615 -0.10503896064083447
 2.1460085943206455e-06 8.758298363126299e-06 -2.4071367020261265e-06 3.0296264608627476e-06 0.9927833967544615 -0.10503896064083447 0.000814028616595645 0.01002724179226511
238673469.3877551 0.0006294149299417526 0.010042726953740004 0.9950242569394259 -0.08717672209912024 -7.520776096218905e-07 4.085431752161675e-06 1.629288067336109e-06 8.944607153048282e-06
 0.9950242569394259 -0.08717672209912024 0.0006294149299417526 0.010042726953740004 -7.520776096218905e-07 4.085431752161675e-06 -2.2864979807988765e-06 3.0690941229384977e-06
 -7.520776096218905e-07 4.085431752161675e-06 -7.520776096218905e-07 4.085431752161675e-06 0.0008348950831293388 0.010251218396700127 0.992614100131144 -0.10739027284912625
 2.1604176516214357e-06 8.999532530993103e-06 -2.2864979807988765e-06 3.0690941229384977e-06 0.992614100131144 -0.10739027284912625 0.0008348950831293388 0.010251218396700127
243755102.0408163 0.0006459169344452309 0.010261423088584791 0.9949113863463029 -0.08908023888428254 -6.697930331274875e-07 4.132046093703962e-06 1.6567980740061117e-06 9.186917204218254e-06
 0.9949113863463029 -0.08908023888428254 0.0006459169344452309 0.010261423088584791 -6.697930331274875e-07 4.132046093703962e-06 -2.1665436031358122e-06 3.1077587162140794e-06
 -6.697930331274875e-07 4.132046093703962e-06 -6.697930331274875e-07 4.132046093703962e-06 0.0008566214284086038 0.010475326699855703 0.9924378066970978 -0.10974383615958125
 2.1775956999986835e-06 9.242563525964018e-06 -2.1665436031358122e-06 3.1077587162140794e-06 0.9924378066970978 -0.10974383615958125 0.0008566214284086038 0.010475326699855703
248836734.69387755 0.0006631018319772295 0.010480238661571538 0.9947937922489094 -0.090985324086164 -5.882087508291253e-07 4.177364761053814e-06 1.6871372693689278e-06 9.430974504620228e-06
 0.9947937922489094 -0.090985324086164 0.0006631018319772295 0.010480238661571538 -5.882087508291253e-07 4.177364761053814e-06 -2.0473703309240437e-06 3.1456685642270808e-06
 -5.882087508291253e-07 4.177364761053814e-06 -5.882087508291253e-07 4.177364761053814e-06 0.0008792183385295658 0.010699551654610593 0.9922544211487411 -0.11209954983071273
 2.1976141978115356e-06 9.487321077413186e-06 -2.0473703309240437e-06 3.1456685642270808e-06 0.9922544211487411 -0.11209954983071273 0.0008792183385295658 0.010699551654610593
253918367.34693876 0.0006809780014241733 0.010699162874753119 0.9946714118509117 -0.09289190921308671 -5.073909539241469e-07 4.221448927287129e-06 1.720366156283875e-06 9.676706866862698e-06
 0.9946714118509117 -0.09289190921308671 0.0006809780014241733 0.010699162874753119 -5.073909539241469e-07 4.221448927287129e-06 -1.9290699008293888e-06 3.1828729196572224e-06
 -5.073909539241469e-07 4.221448927287129e-06 -5.073909539241469e-07 4.221448927287129e-06 0.0009026957595103414 0.010923877946888745 0.9920638535889601 -0.11445731071804362
 2.2205407627159893e-06 9.733733130073281e-06 -1.9290699008293888e-06 3.1828729196572224e-06 0.9920638535889601 -0.11445731071804362 0.0009026957595103414 0.010923877946888745
258999999.99999997 0.0006995532452382175 0.01091818475019276 0.9945441860764827 -0.09479992432374917 -4.2740203967631966e-07 4.264360922689404e-06 1.756541691284187e-06 9.924040520153392e-06
 0.9945441860764827 -0.09479992432374917 0.0006995532452382175 0.01091818475019276 -4.2740203967631966e-07 4.264360922689404e-06 -1.8117290266434246e-06 3.2194218271783522e-06
 -4.2740203967631966e-07 4.264360922689404e-06 -4.2740203967631966e-07 4.264360922689404e-06 0.0009270628989326032 0.011148290032227729 0.9918660195198894 -0.11681701356751385
 2.246439175668522e-06 9.981726056326497e-06 -1.8117290266434246e-06 3.2194218271783522e-06 0.9918660195198894 -0.11681701356751385 0.0009270628989326032 0.011148290032227729
264081632.6530612 0.0007188347922413512 0.011137293156068146 0.9944120595546726 -0.09670929822131381 -3.483006250419542e-07 4.306164059242239e-06 1.7957172994507422e-06 1.017290031701722e-05
 0.9944120595546726 -0.09670929822131381 0.0007188347922413512 0.011137293156068146 -3.483006250419542e-07 4.306164059242239e-06 -1.695429416418684e-06 3.255365990547672e-06
 -3.483006250419542e-07 4.306164059242239e-06 -3.483006250419542e-07 4.306164059242239e-06 0.0009523282296635671 0.011372772171223035 0.9916608398199785 -0.1191785512998976
 2.2753693962146257e-06 1.0231224862004902e-05 -1.695429416418684e-06 3.255365990547672e-06 0.9916608398199785 -0.1191785512998976 0.0009523282296635671 0.011372772171223035
269163265.3061224 0.0007388293019538265 0.011356476831888096 0.9942749805936957 -0.09861995864097217 -2.7014157057488887e-07 4.346922461027705e-06 1.8379428989253202e-06 1.0423209933077883e-05
 0.9942749805936957 -0.09861995864097217 0.0007388293019538265 0.011356476831888096 -2.7014157057488887e-07 4.346922461027705e-06 -1.5802478033408107e-06 3.290756644196609e-06
 -2.7014157057488887e-07 4.346922461027705e-06 -2.7014157057488887e-07 4.346922461027705e-06 0.000978499495504126 0.011597308463768153 0.991448240706449 -0.12154181528566023
 2.3073875882586678e-06 1.0482153385283137e-05 -1.5802478033408107e-06 3.290756644196609e-06 0.991448240706449 -0.12154181528566023 0.000978499495504126 0.011597308463768153
274244897.9591837 0.0007595428703320787 0.011575724412790998 0.9941329011458929 -0.10053183243066183 -1.9297601382806395e-07 4.386700900843175e-06 1.8832649343286328e-06 1.0674892059554466e-05
 0.9941329011458929 -0.10053183243066183 0.0007595428703320787 0.011575724412790998 -1.9297601382806395e-07 4.386700900843175e-06 -1.4662559892932688e-06 3.3256454295430522e-06
 -1.9297601382806395e-07 4.386700900843175e-06 -1.9297601382806395e-07 4.386700900843175e-06 0.0010055837186203679 0.01182188288203854 0.991228153684269 -0.12390669560977248
 2.3425461555163367e-06 1.073443448831625e-05 -1.4662559892932688e-06 3.3256454295430522e-06 0.991228153684269 -0.12390669560977248 0.0010055837186203679 0.01182188288203854
279326530.6122449 0.000780981036799775 0.011795024452879577 0.9939857767641411 -0.10244484572466955 -1.168514114792754e-07 4.425564643263551e-06 1.9317264183583237e-06 1.0927868588191064e-05
 0.9939857767641411 -0.10244484572466955 0.000780981036799775 0.011795024452879577 -1.168514114792754e-07 4.425564643263551e-06 -1.3535209000832556e-06 3.360084276202939e-06
 -1.168514114792754e-07 4.425564643263551e-06 -1.168514114792754e-07 4.425564643263551e-06 0.0010335872086088612 0.012046479302166525 0.991000515482741 -0.12627308132609275
 2.3808937858623564e-06 1.0987990241342197e-05 -1.3535209000832556e-06 3.360084276202939e-06 0.991000515482741 -0.12627308132609275 0.0010335872086088612 0.012046479302166525
284408163.2653061 0.0008031487924618759 0.012014365447571973 0.9938335665504456 -0.10435892410991554 -4.1811589423480285e-08 4.463579294335003e-06 1.9833669808549853e-06 1.1182060788399175e-05
 0.9938335665504456 -0.10435892410991554 0.0008031487924618759 0.012014365447571973 -4.1811589423480285e-08 4.463579294335003e-06 -1.2421046513173491e-06 3.394125288238931e-06
 -4.1811589423480285e-08 4.463579294335003e-06 -4.1811589423480285e-08 4.463579294335003e-06 0.0010625155730576317 0.012271081534574667 0.9907652679807742 -0.12864086070102324
 2.4224755037993614e-06 1.124274209902985e-05 -1.2421046513173491e-06 3.394125288238931e-06 0.9907652679807742 -0.12864086070102324 0.0010625155730576317 0.012271081534574667
289489795.9183673 0.0008260505893876045 0.012233735854941894 0.993676233097446 -0.10627399278476714 3.210319990770111e-08 4.5008106580352345e-06 2.0382229246419726e-06 1.143738947645179e-05
 0.993676233097446 -0.10627399278476714 0.0008260505893876045 0.012233735854941894 3.210319990770111e-08 4.5008106580352345e-06 -1.132064623939537e-06 3.4278206355473853e-06
 3.210319990770111e-08 4.5008106580352345e-06 3.210319990770111e-08 4.5008106580352345e-06 0.0010923737294597378 0.012495673352935307 0.9905223581219058 -0.13100992144620954
 2.4673327302938777e-06 1.1498611068912206e-05 -1.132064623939537e-06 3.4278206355473853e-06 0.9905223581219058 -0.13100992144620954 0.0010923737294597378 0.012495673352935307
294571428.57142854 0.0008496903508578815 0.01245312411604203 0.9935137424235384 -0.10818997671028378 1.0485621371705707e-07 4.537324599589827e-06 2.096327287465478e-06 1.1693775176622014e-05
 0.9935137424235384 -0.10818997671028378 0.0008496903508578815 0.01245312411604203 1.0485621371705707e-07 4.537324599589827e-06 -1.0234535484733054e-06 3.4612224504502233e-06
 1.0485621371705707e-07 4.537324599589827e-06 1.0485621371705707e-07 4.537324599589827e-06 0.0011231659183429334 0.012720238521740874 0.9902717378200776 -0.13338015094014585
 2.5155033492472486e-06 1.1755517871798228e-05 -1.0234535484733054e-06 3.4612224504502233e-06 0.9902717378200776 -0.13338015094014585 0.0011231659183429334 0.012720238521740874
299653061.22448975 0.0008740714824749775 0.012672518674196406 0.9933460639023001 -0.11010680075383612 1.764141491963528e-07 4.5731869156919384e-06 2.1577099093834234e-06 1.1951138274208662e-05
 0.9933460639023001 -0.11010680075383612 0.0008740714824749775 0.012672518674196406 1.764141491963528e-07 4.5731869156919384e-06 -9.16319597042472e-07 3.494382729526541e-06
 1.764141491963528e-07 4.5731869156919384e-06 1.764141491963528e-07 4.5731869156919384e-06 0.0011548957174919165 0.01294476082247616 0.9900133638571686 -0.13575143643859808
 2.567021779893651e-06 1.201338309410616e-05 -9.16319597042472e-07 3.494382729526541e-06 0.9900133638571686 -0.13575143643859808 0.0011548957174919165 0.01294476082247616
304734693.877551 0.0008991968840316516 0.012891907993267438 0.9931731701868657 -0.11202438982509248 2.467470687307703e-07 4.608463211634245e-06 2.222397504978018e-06 1.2209399160437682e-05
 0.9931731701868657 -0.11202438982509248 0.0008991968840316516 0.012891907993267438 2.467470687307703e-07 4.608463211634245e-06 -8.107064822809289e-07 3.5273532406899842e-06
 2.467470687307703e-07 4.608463211634245e-06 2.467470687307703e-07 4.608463211634245e-06 0.0011875660571296267 0.013169224078390529 0.9897471977732236 -0.13812366527383846
 2.62191905444576e-06 1.2272127332107295e-05 -8.107064822809289e-07 3.5273532406899842e-06 0.9897471977732236 -0.13812366527383846 0.0011875660571296267 0.013169224078390529
309816326.53061223 0.0009250689620486378 0.013111280574893545 0.992995037129886 -0.11394266900439813 3.158283205906807e-07 4.64321878532692e-06 2.290413739792806e-06 1.246847836926914e-05
 0.992995037129886 -0.11394266900439813 0.0009250689620486378 0.013111280574893545 3.158283205906807e-07 4.64321878532692e-06 -7.066535622800976e-07 3.5601854354912283e-06
 3.158283205906807e-07 4.64321878532692e-06 3.158283205906807e-07 4.64321878532692e-06 0.0012211792359403107 0.013393612177870896 0.9894732057502845 -0.14049672504272875
 2.6802229003371892e-06 1.253167132810985e-05 -7.066535622800976e-07 3.5601854354912283e-06 0.9894732057502845 -0.14049672504272875 0.0012211792359403107 0.013393612177870896
314897959.18367344 0.0009516896428868665 0.013330624974714303 0.9928116436996653 -0.1158615636636134 3.8363445571810984e-07 4.6775185181439144e-06 2.361779310424193e-06 1.2728296706177801e-05
 0.9928116436996653 -0.1158615636636134 0.0009516896428868665 0.013330624974714303 3.8363445571810984e-07 4.6775185181439144e-06 -6.041959507629815e-07 3.592930366601451e-06
 3.8363445571810984e-07 4.6775185181439144e-06 3.8363445571810984e-07 4.6775185181439144e-06 0.0012557369378233736 0.013617909096436133 0.9891913584906941 -0.14287050378374275
 2.74195782644196e-06 1.2791936098650785e-05 -6.041959507629815e-07 3.592930366601451e-06 0.9891913584906941 -0.14287050378374275 0.0012557369378233736 0.013617909096436133
319979591.83673465 0.00097906038634974 0.013549929817589006 0.9926229718930405 -0.11778099957950414 4.501451411841071e-07 4.711426772511403e-06 2.43651202772594e-06 1.298877536900821e-05
 0.9926229718930405 -0.11778099957950414 0.00097906038634974 0.013549929817589006 4.501451411841071e-07 4.711426772511403e-06 -5.033646317154413e-07 3.6256386104109623e-06
 4.501451411841071e-07 4.711426772511403e-06 4.501451411841071e-07 4.711426772511403e-06 0.0012912402492617312 0.013842098917360268 0.988901631090691 -0.14524489014307493
 2.8071452126829054e-06 1.3052843054796127e-05 -5.033646317154413e-07 3.6256386104109623e-06 0.988901631090691 -0.14524489014307493 0.0012912402492617312 0.013842098917360268
325061224.4897959 0.0010071821996950235 0.01376918381183045 0.9924290066455448 -0.11970090303980938 5.153430708611364e-07 4.745007296127311e-06 2.5146269026156316e-06 1.3249836061035414e-05
 0.9924290066455448 -0.11970090303980938 0.0010071821996950235 0.01376918381183045 5.153430708611364e-07 4.745007296127311e-06 -4.041865777479442e-07 3.6583601946586298e-06
 5.153430708611364e-07 4.745007296127311e-06 5.153430708611364e-07 4.745007296127311e-06 0.001327689677210218 0.014066165850955045 0.9886040029100625 -0.14761977353001238
 2.8758034024734727e-06 1.3314314114680406e-05 -4.041865777479442e-07 3.6583601946586298e-06 0.9886040029100625 -0.14761977353001238 0.001327689677210218 0.014066165850955045
330142857.14285713 0.0010360556519788098 0.0139883757624685 0.9922297357393515 -0.12162120094213139 5.792138738226075e-07 4.778323132678565e-06 2.5961362340020684e-06 1.3511401096388524e-05
 0.9922297357393515 -0.12162120094213139 0.0010360556519788098 0.0139883757624685 5.792138738226075e-07 4.778323132678565e-06 -3.0668487150406955e-07 3.69114453099085e-06
 5.792138738226075e-07 4.778323132678565e-06 5.792138738226075e-07 4.778323132678565e-06 0.0013650851674002823 0.014290094252533844 0.9882984574386015 -0.1499950442617795
 2.9479477974705702e-06 1.3576271808441718e-05 -3.0668487150406955e-07 3.69114453099085e-06 0.9882984574386015 -0.1499950442617795 0.0013650851674002823 0.014290094252533844
335224489.79591835 0.0010656808886608169 0.014207494583572674 0.9920251497094736 -0.12354182088581936 6.417460209490562e-07 4.811436538903888e-06 2.6810496983829837e-06 1.3773393498017025e-05
 0.9920251497094736 -0.12354182088581936 0.0010656808886608169 0.014207494583572674 6.417460209490562e-07 4.811436538903888e-06 -2.1087882947528486e-07 3.7240403523345633e-06
 6.417460209490562e-07 4.811436538903888e-06 6.417460209490562e-07 4.811436538903888e-06 0.001403426122977028 0.014513868639090636 0.9879849821600296 -0.15237059369811579
 3.0235909541484588e-06 1.3838639375731723e-05 -2.1087882947528486e-07 3.7240403523345633e-06 0.9879849821600296 -0.15237059369811579 0.001403426122977028 0.014513868639090636
340306122.44897956 0.0010960576464019997 0.014426529309650818 0.9918152417486599 -0.12546269125703333 7.029307301884184e-07 4.844408907833274e-06 2.7693744406927223e-06 1.4035737088398975e-05
 0.9918152417486599 -0.12546269125703333 0.0010960576464019997 0.014426529309650818 7.029307301884184e-07 4.844408907833274e-06 -1.1678412762453656e-07 3.7570956549564053e-06
 7.029307301884184e-07 4.844408907833274e-06 7.029307301884184e-07 4.844408907833274e-06 0.001442711423377552 0.01473747370472477 0.9876635684140427 -0.15474631436585157
 3.1027426817373685e-06 1.4101340855998743e-05 -1.1678412762453656e-07 3.7570956549564053e-06 0.9876635684140427 -0.15474631436585157 0.001442711423377552 0.01473747370472477
345387755.10204077 0.0011271852679977901 0.014645469106161596 0.991600007611394 -0.12738374130719013 7.627618708861864e-07 4.87730069802168e-06 2.861115166009276e-06 1.4298356573207099e-05
 0.991600007611394 -0.12738374130719013 0.0011271852679977901 0.014645469106161596 7.627618708861864e-07 4.87730069802168e-06 -2.4412928263453755e-08 3.790357645069743e-06
 7.627618708861864e-07 4.87730069802168e-06 7.627618708861864e-07 4.87730069802168e-06 0.0014829394433772878 0.014960894334854431 0.9873342112570564 -0.1571221000737813
 3.185410141102211e-06 1.4364301171759127e-05 -2.4412928263453755e-08 3.790357645069743e-06 0.9873342112570564 -0.1571221000737813 0.0014829394433772878 0.014960894334854431
350469387.75510204 0.0011590627173830841 0.014864303279156542 0.9913794455173777 -0.1293049012250065 8.212358675696912e-07 4.9101713685829394e-06 2.9562742317592204e-06 1.456117761816181e-05
 0.9913794455173777 -0.1293049012250065 0.0011590627173830841 0.014864303279156542 8.212358675696912e-07 4.9101713685829394e-06 6.622599233007e-08 3.823872689842641e-06
 8.212358675696912e-07 4.9101713685829394e-06 8.212358675696912e-07 4.9101713685829394e-06 0.001524108072228406 0.015184115619249943 0.9869969093222097 -0.1594978460181515
 3.2715979441687856e-06 1.4627446205084905e-05 6.622599233007e-08 3.823872689842641e-06 0.9869969093222097 -0.1594978460181515 0.001524108072228406 0.015184115619249943
355551020.40816325 0.001191688594658548 0.015083021284095286 0.9911535560548435 -0.13122610220236697 8.783516035408003e-07 4.943079319820729e-06 3.0548517400878623e-06 1.4824126919311184e-05
 0.9911535560548435 -0.13122610220236697 0.001191688594658548 0.015083021284095286 8.783516035408003e-07 4.943079319820729e-06 1.5512711602688317e-07 3.857686272652999e-06
 8.783516035408003e-07 4.943079319820729e-06 8.783516035408003e-07 4.943079319820729e-06 0.0015662147328252222 0.01540712286393615 0.9866516646791238 -0.16187344887909
 3.3613082535361885e-06 1.4890702867546864e-05 1.5512711602688317e-07 3.857686272652999e-06 0.9866516646791238 -0.16187344887909 0.0015662147328252222 0.01540712286393615
360632653.06122446 0.0012250611510931137 0.015301612733854771 0.9909223420840182 -0.13314727649424735 9.341103246014563e-07 4.976081839246505e-06 3.156845630089528e-06 1.5087132266986851e-05
 0.9909223420840182 -0.13314727649424735 0.0012250611510931137 0.015301612733854771 9.341103246014563e-07 4.976081839246505e-06 2.422880551274998e-07 3.8918429524318035e-06
 9.341103246014563e-07 4.976081839246505e-06 9.341103246014563e-07 4.976081839246505e-06 0.001609256400834453 0.015629901601999598 0.9862984826938855 -0.1642488069083234
 3.454540881943835e-06 1.5153999163860668e-05 2.422880551274998e-07 3.8918429524318035e-06 0.9862984826938855 -0.1642488069083234 0.001609256400834453 0.015629901601999598
365714285.7142857 0.0012591783040528002 0.015520067405971854 0.9906858086410325 -0.13506835747293186 9.88515543208052e-07 5.009235052768605e-06 3.2622517696192848e-06 1.5350122603689808e-05
 0.9906858086410325 -0.13506835747293186 0.0012591783040528002 0.015520067405971854 9.88515543208052e-07 5.009235052768605e-06 3.2770942520415436e-07 3.926386326931162e-06
 9.88515543208052e-07 5.009235052768605e-06 9.88515543208052e-07 5.009235052768605e-06 0.0016532296237339631 0.015852437603348847 0.9859373718896696 -0.16662382000852646
 3.551293391290529e-06 1.541726424948932e-05 3.2770942520415436e-07 3.926386326931162e-06 0.9859373718896696 -0.16662382000852646 0.0016532296237339631 0.015852437603348847
370795918.36734694 0.0012940376518189528 0.015738375249145686 0.9904439628425293 -0.13698927967677418 1.04157294332342e-06 5.042593880833879e-06 3.3710640464338185e-06 1.5613028076165695e-05
 0.9904439628425293 -0.13698927967677418 0.0012940376518189528 0.015738375249145686 1.04157294332342e-06 5.042593880833879e-06 4.113947188628739e-07 3.961358999751649e-06
 1.04157294332342e-06 5.042593880833879e-06 1.04157294332342e-06 5.042593880833879e-06 0.0016981305397076973 0.016074716883470844 0.9855683438083909 -0.1689983898046684
 3.65156119093163e-06 1.568042848245995e-05 4.113947188628739e-07 3.961358999751649e-06 0.9855683438083909 -0.1689983898046684 0.0016981305397076973 0.016074716883470844
375877551.02040815 0.001329636488259182 0.015956526389039796 0.9901968137912273 -0.1389099788537368 1.093290286208793e-06 5.076211999300633e-06 3.4832744584330905e-06 1.5875780081930376e-05
 0.9901968137912273 -0.1389099788537368 0.001329636488259182 0.015956526389039796 1.093290286208793e-06 5.076211999300633e-06 4.933501807491651e-07 3.996802550961644e-06
 1.093290286208793e-06 5.076211999300633e-06 1.093290286208793e-06 5.076211999300633e-06 0.0017439548963572654 0.016296725711224824 0.9851914128737276 -0.17137241970770578
 3.755337635006113e-06 1.594342346965501e-05 4.933501807491651e-07 3.996802550961644e-06 0.9851914128737276 -0.17137241970770578 0.0017439548963572654 0.016296725711224824
380959183.67346936 0.0013659718173166851 0.016174511133409696 0.9899443724826356 -0.14083039199996233 1.1436773173732092e-06 5.110141804821453e-06 3.598873202798164e-06 1.6138311310507497e-05
 0.9899443724826356 -0.14083039199996233 0.0013659718173166851 0.016174511133409696 1.1436773173732092e-06 5.110141804821453e-06 5.735846840877742e-07 4.032757511140975e-06
 1.1436773173732092e-06 5.110141804821453e-06 1.1436773173732092e-06 5.110141804821453e-06 0.0017906980691777957 0.016518450615725933 0.9848065962558262 -0.17374581497099026
 3.862614118571557e-06 1.62061821078382e-05 5.735846840877742e-07 4.032757511140975e-06 0.9848065962558262 -0.17374581497099026 0.0017906980691777957 0.016518450615725933
386040816.3265306 0.001403040367293112 0.016392319976595706 0.9896866517131273 -0.14275045739362152 1.192745674874279e-06 5.1444343845151574e-06 3.717848763842893e-06 1.6400555779639283e-05
 0.9896866517131273 -0.14275045739362152 0.001403040367293112 0.016392319976595706 1.192745674874279e-06 5.1444343845151574e-06 6.521096090152512e-07 4.069263338681972e-06
 1.192745674874279e-06 5.1444343845151574e-06 1.192745674874279e-06 5.1444343845151574e-06 0.0018383550797733737 0.016739878392355145 0.9844139137379675 -0.1761184827397461
 3.973380172349029e-06 1.6468638619675268e-05 6.521096090152512e-07 4.069263338681972e-06 0.9844139137379675 -0.1761184827397461 0.0018383550797733737 0.016739878392355145
391122448.9795918 0.001440838604892591 0.01660994360340599 0.9894236659895284 -0.1446701146242747 1.2405087991414696e-06 5.1791394897087155e-06 3.8401879994176544e-06 1.666244886672882e-05
 0.9894236659895284 -0.1446701146242747 0.001440838604892591 0.01660994360340599 1.2405087991414696e-06 5.1791394897087155e-06 7.289387229340507e-07 4.106358400181955e-06
 1.2405087991414696e-06 5.1791394897087155e-06 1.2405087991414696e-06 5.1791394897087155e-06 0.00188692061376858 0.016960996107944073 0.984013387585435 -0.17849033209397283
 4.087623555902231e-06 1.673072858500699e-05 7.289387229340507e-07 4.106358400181955e-06 0.984013387585435 -0.17849033209397283 0.00188692061376858 0.016960996107944073
396204081.63265306 0.0014793627490100718 0.016827372892431254 0.9891554314403752 -0.14658930461799283 1.2869818444724863e-06 5.214305513533058e-06 3.965876225724001e-06 1.6923927335769772e-05
 0.9891554314403752 -0.14658930461799283 0.0014793627490100718 0.016827372892431254 1.2869818444724863e-06 5.214305513533058e-06 8.040880630889712e-07 4.144079953763764e-06
 1.2869818444724863e-06 5.214305513533058e-06 1.2869818444724863e-06 5.214305513533058e-06 0.0019363890383961137 0.017181791105179922 0.9836050424168049 -0.18086127408512742
 4.205330349097743e-06 1.6992388967628796e-05 8.040880630889712e-07 4.144079953763764e-06 0.9836050424168049 -0.18086127408512742 0.0019363890383961137 0.017181791105179922
401285714.28571427 0.0015186087842434365 0.017044598918813308 0.9888819657289724 -0.1485079696584726 1.3321815923330282e-06 5.249979472160063e-06 4.094897300416762e-06 1.7184929360014107e-05
 0.9888819657289724 -0.1485079696584726 0.0015186087842434365 0.017044598918813308 1.3321815923330282e-06 5.249979472160063e-06 8.775758215399988e-07 4.182464135163281e-06
 1.3321815923330282e-06 5.249979472160063e-06 1.3321815923330282e-06 5.249979472160063e-06 0.001986754419729901 0.017402251006268188 0.9831889050778395 -0.18323122176693046
 4.326485041712408e-06 1.7253558137826933e-05 8.775758215399988e-07 4.182464135163281e-06 0.9831889050778395 -0.18323122176693046 0.001986754419729901 0.017402251006268188
406367346.9387755 0.0015585724741073279 0.01726161295650621 0.988603287968358 -0.1504260534043735 1.3761263665720617e-06 5.2862069894725226e-06 4.227233703888103e-06 1.7445394540624035e-05
 0.988603287968358 -0.1504260534043735 0.0015585724741073279 0.01726161295650621 1.3761263665720617e-06 5.2862069894725226e-06 9.494222326811384e-07 4.221545946426427e-06
 1.3761263665720617e-06 5.2862069894725226e-06 1.3761263665720617e-06 5.2862069894725226e-06 0.0020380105395449845 0.017622363715901545 0.9827650045181494 -0.18560009022063223
 4.451070621073357e-06 1.7514175890915956e-05 9.494222326811384e-07 4.221545946426427e-06 0.9827650045181494 -0.18560009022063223 0.0020380105395449845 0.017622363715901545
411448979.5918367 0.001599249373942801 0.017478406480055782 0.9883194186382698 -0.1523435009031057 1.418835950647399e-06 5.323032284963921e-06 4.362866618644109e-06 1.770526392154789e-05
 0.9883194186382698 -0.1523435009031057 0.001599249373942801 0.017478406480055782 1.418835950647399e-06 5.323032284963921e-06 1.0196494634317565e-06 4.2613592470617915e-06
 1.418835950647399e-06 5.323032284963921e-06 1.418835950647399e-06 5.323032284963921e-06 0.0020901509117851698 0.01784211742357107 0.9823333716707561 -0.187967796575074
 4.579068657633774e-06 1.7774183462016442e-05 1.0196494634317565e-06 4.2613592470617915e-06 0.9823333716707561 -0.187967796575074 0.0020901509117851698 0.01784211742357107
416530612.24489796 0.0016406348435033468 0.017694971165927796 0.9880303795041904 -0.15426025860128445 1.4603315069401453e-06 5.360498164670044e-06 4.501776006698948e-06 1.7964480000852995e-05
 0.9880303795041904 -0.15426025860128445 0.0016406348435033468 0.017694971165927796 1.4603315069401453e-06 5.360498164670044e-06 1.0882815062053185e-06 4.301936747499105e-06
 1.4603315069401453e-06 5.360498164670044e-06 1.4603315069401453e-06 5.360498164670044e-06 0.002143168798623622 0.01806150060526267 0.9818940393346696 -0.19033426002185824
 4.710459388403116e-06 1.8033523537304842e-05 1.0882815062053185e-06 4.301936747499105e-06 0.9818940393346696 -0.19033426002185824 0.002143168798623622 0.01806150060526267
421612244.8979592 0.0016827240592115315 0.017911298893415268 0.9877361935385416 -0.1561762743520678 1.500635498222308e-06 5.398646014940936e-06 4.643940684926723e-06 1.822298673874242e-05
 0.9877361935385416 -0.1561762743520678 0.0016827240592115315 0.017911298893415268 1.500635498222308e-06 5.398646014940936e-06 1.155344074741182e-06 4.343310004708519e-06
 1.500635498222308e-06 5.398646014940936e-06 1.500635498222308e-06 5.398646014940936e-06 0.0021970572261022113 0.0182805020245766 0.9814470420605765 -0.1926994018259482
 4.845221798166952e-06 1.82921402619614e-05 1.155344074741182e-06 4.343310004708519e-06 0.9814470420605765 -0.1926994018259482 0.0021970572261022113 0.0182805020245766
426693877.5510204 0.0017255120260767035 0.01812738174514999 0.9874368848440661 -0.15809149741957843 1.5397716113275865e-06 5.437515798867448e-06 4.789338398322681e-06 1.8480729562473686e-05
 0.9874368848440661 -0.15809149741957843 0.0017255120260767035 0.01812738174514999 1.5397716113275865e-06 5.437515798867448e-06 1.2208645028663207e-06 4.3855094198400925e-06
 1.5397716113275865e-06 5.437515798867448e-06 1.5397716113275865e-06 5.437515798867448e-06 0.0022518089993442372 0.018499110733307816 0.9809924160397051 -0.19506314533199065
 4.983333698443937e-06 1.8549979245033218e-05 1.2208645028663207e-06 4.3855094198400925e-06 0.9809924160397051 -0.19506314533199065 0.0022518089993442372 0.018499110733307816
431775510.2040816 0.0017689935892702057 0.01834321200724555 0.9871324785794436 -0.16000587848061093 1.5777646830634047e-06 5.477146055183486e-06 4.937945891137962e-06 1.8737655368390626e-05
 0.9871324785794436 -0.16000587848061093 0.0017689935892702057 0.01834321200724555 1.5777646830634047e-06 5.477146055183486e-06 1.2848716462374623e-06 4.428564237747961e-06
 1.5777646830634047e-06 5.477146055183486e-06 1.5777646830634047e-06 5.477146055183486e-06 0.002307416717326393 0.018717316071522258 0.9805301989959261 -0.1974254159666551
 5.124771804141491e-06 1.8806987561422872e-05 1.2848716462374623e-06 4.428564237747961e-06 0.9805301989959261 -0.1974254159666551 0.002307416717326393 0.018717316071522258
436857142.8571428 0.0018131634453505258 0.018558782169100233 0.986823000887168 -0.1619193696238143 1.6146406283903343e-06 5.517573899471781e-06 5.089738975862691e-06 1.8993712521271374e-05
 0.986823000887168 -0.1619193696238143 0.0018131634453505258 0.018558782169100233 1.6146406283903343e-06 5.517573899471781e-06 1.3473957870987544e-06 4.472502548268777e-06
 1.6146406283903343e-06 5.517573899471781e-06 1.6146406283903343e-06 5.517573899471781e-06 0.0023638727872120026 0.018935107667167543 0.9800604300811285 -0.19978614123727043
 5.269511807882665e-06 1.9063113751204447e-05 1.3473957870987544e-06 4.472502548268777e-06 0.9800604300811285 -0.19978614123727043 0.0023638727872120026 0.018935107667167543
441938775.5102041 0.0018580161531393344 0.018774084922879918 0.986508478823693 -0.16383192434653132 1.650426370884987e-06 5.558835027507791e-06 5.244692600041826e-06 1.924885085118693e-05
 0.986508478823693 -0.16383192434653132 0.0018580161531393344 0.018774084922879918 1.650426370884987e-06 5.558835027507791e-06 1.408468542076118e-06 4.517351289129132e-06
 1.650426370884987e-06 5.558835027507791e-06 1.650426370884987e-06 5.558835027507791e-06 0.0024211694382369336 0.01915247543524614 0.9795831497738897 -0.20214525072702272
 5.417528451987756e-06 1.9318307816460764e-05 1.408468542076118e-06 4.517351289129132e-06 0.9795831497738897 -0.20214525072702272 0.0024211694382369336 0.01915247543524614
447020408.1632653 0.0019035461442442874 0.018989113162707388 0.9861889402918648 -0.16574349754947296 1.685149775492701e-06 5.600963720583444e-06 5.40278091091731e-06 1.9503021648056936e-05
 0.9861889402918648 -0.16574349754947296 0.0019035461442442874 0.018989113162707388 1.685149775492701e-06 5.600963720583444e-06 1.468122773016765e-06 4.563136250362001e-06
 1.685149775492701e-06 5.600963720583444e-06 1.685149775492701e-06 5.600963720583444e-06 0.0024792987351477335 0.019369409576587875 0.9790983997814561 -0.20450267608697684
 5.568795598103565e-06 1.9572521215827532e-05 1.468122773016765e-06 4.563136250362001e-06 0.9790983997814561 -0.20450267608697684 0.0024792987351477335 0.019369409576587875
452102040.8163265 0.0019497477332311086 0.019203859983580453 0.9858644139756293 -0.16765404552939075 1.7188395835680799e-06 5.643992852659262e-06 5.563977317898061e-06 1.9756177654080532e-05
 0.9858644139756293 -0.16765404552939075 0.0019497477332311086 0.019203859983580453 1.7188395835680799e-06 5.643992852659262e-06 1.5263925008711313e-06 4.6098820801173775e-06
 1.7188395835680799e-06 5.643992852659262e-06 1.7188395835680799e-06 5.643992852659262e-06 0.0025382525911945837 0.01958590057624951 0.9786062229450251 -0.2068583510251616
 5.723286294482401e-06 1.9825706856921527e-05 1.5263925008711313e-06 4.6098820801173775e-06 0.9786062229450251 -0.2068583510251616 0.0025382525911945837 0.01958590057624951
457183673.4693877 0.0019966151274447316 0.019418318680040205 0.9855349292770149 -0.16956352596991145 1.7515253501934282e-06 5.687953899200594e-06 5.728254552866396e-06 2.0008273054212052e-05
 0.9855349292770149 -0.16956352596991145 0.0019966151274447316 0.019418318680040205 1.7515253501934282e-06 5.687953899200594e-06 1.5833128226038776e-06 4.657612291757708e-06
 1.7515253501934282e-06 5.687953899200594e-06 1.7515253501934282e-06 5.687953899200594e-06 0.002598022780676827 0.019801939201573287 0.9781066631483221 -0.2092122112929559
 5.88097284092007e-06 2.0077819086821895e-05 1.5833128226038776e-06 4.657612291757708e-06 0.9781066631483221 -0.2092122112929559 0.002598022780676827 0.019801939201573287
462265306.1224489 0.002044142436480857 0.019632482744607545 0.9852005162553714 -0.1714718979306818 1.7832373837585495e-06 5.732876947560355e-06 5.895584728336148e-06 2.025926346484322e-05
 0.9852005162553714 -0.1714718979306818 0.002044142436480857 0.019632482744607545 1.7832373837585495e-06 5.732876947560355e-06 1.6389198311118017e-06 4.7063492721338085e-06
 1.7832373837585495e-06 5.732876947560355e-06 1.7832373837585495e-06 5.732876947560355e-06 0.00265860095104755 0.020017516499927647 0.9775997652294477 -0.21156419466899698
 6.0418268513699e-06 2.0328813680765326e-05 1.6389198311118017e-06 4.7063492721338085e-06 0.9775997652294477 -0.21156419466899698 0.00265860095104755 0.020017516499927647
467346938.7755102 0.0020923236813157426 0.019846345866012294 0.9848612055688334 -0.1733791218349702 1.8140066877791392e-06 5.778790708777842e-06 6.0659393934834024e-06 2.0509105920844947e-05
 0.9848612055688334 -0.1733791218349702 0.0020923236813157426 0.019846345866012294 1.8140066877791392e-06 5.778790708777842e-06 1.693250538118128e-06 4.756114290942231e-06
 1.8140066877791392e-06 5.778790708777842e-06 1.8140066877791392e-06 5.778790708777842e-06 0.0027199786345788045 0.020232623796163546 0.9770855748959577 -0.2139142409408235
 6.205819314255481e-06 2.0578647829207818e-05 1.693250538118128e-06 4.756114290942231e-06 0.9770855748959577 -0.2139142409408235 0.0027199786345788045 0.020232623796163546
472428571.4285714 0.002141152803090464 0.020059901927228497 0.9845170284179992 -0.1752851594558607 1.8438649049255305e-06 5.825722530669566e-06 6.239289588075969e-06 2.075775886111445e-05
 0.9845170284179992 -0.1752851594558607 0.002141152803090464 0.020059901927228497 1.8438649049255305e-06 5.825722530669566e-06 1.7463428000054574e-06 4.806927511069973e-06
 1.8438649049255305e-06 5.825722530669566e-06 1.8438649049255305e-06 5.825722530669566e-06 0.0027821472595946565 0.02044725268980481 0.9765641386431475 -0.21626229188445106
 6.372920650510657e-06 2.0827280123397757e-05 1.7463428000054574e-06 4.806927511069973e-06 0.9765641386431475 -0.21626229188445106 0.0027821472595946565 0.02044725268980481
477510204.0816326 0.002190623671563461 0.020273145003335446 0.9841680164917803 -0.1771899739011691 1.8728442632290077e-06 5.8736984120949074e-06 6.415605894331927e-06 2.100518211276473e-05
 0.9841680164917803 -0.1771899739011691 0.002190623671563461 0.020273145003335446 1.8728442632290077e-06 5.8736984120949074e-06 1.7982352465434518e-06 4.8588079998374935e-06
 1.8728442632290077e-06 5.8736984120949074e-06 1.8728442632290077e-06 5.8736984120949074e-06 0.0028450981612722134 0.02066139505199929 0.976035503675484 -0.2186082912420737
 6.543100769380088e-06 2.107467053959724e-05 1.7982352465434518e-06 4.8588079998374935e-06 0.976035503675484 -0.2186082912420737 0.0028450981612722134 0.02066139505199929
482591836.7346938 0.0022407300932291057 0.02048606935922282 0.9838142019153885 -0.17909352959720345 1.900977524428583e-06 5.922743018285723e-06 6.594858486741822e-06 2.125133687408682e-05
 0.9838142019153885 -0.17909352959720345 0.0022407300932291057 0.02048606935922282 1.900977524428583e-06 5.922743018285723e-06 1.8489672124616813e-06 4.911773741055933e-06
 1.900977524428583e-06 5.922743018285723e-06 1.900977524428583e-06 5.922743018285723e-06 0.0029088225920297743 0.02087504302225612 0.9754997178311428 -0.22095218469806785
 6.716329122017802e-06 2.1320780422080945e-05 1.8489672124616813e-06 4.911773741055933e-06 0.9754997178311428 -0.22095218469806785 0.0029088225920297743 0.02087504302225612
487673469.3877551 0.0022914658191114778 0.0206986694471495 0.9834556172004217 -0.180995792271484 1.9282979344176255e-06 5.972879697135205e-06 6.777017179891927e-06 2.149618569640673e-05
 0.9834556172004217 -0.180995792271484 0.0022914658191114778 0.0206986694471495 1.9282979344176255e-06 5.972879697135205e-06 1.898578671813339e-06 4.9658416478187394e-06
 1.9282979344176255e-06 5.972879697135205e-06 1.9282979344176255e-06 5.972879697135205e-06 0.002973311731493371 0.021088189004981852 0.9749568295095837 -0.2232939198534682
 6.8925747529248225e-06 2.156557246503434e-05 1.898578671813339e-06 4.9658416478187394e-06 0.9749568295095837 -0.2232939198534682 0.002973311731493371 0.021088189004981852
492755102.0408163 0.0023428245522416117 0.020910939904179117 0.9830922951970097 -0.18289672893452863 1.9548391757468923e-06 6.024130496347555e-06 6.962051474329767e-06 2.173969246495288e-05
 0.9830922951970097 -0.18289672893452863 0.0023428245522416117 0.020910939904179117 1.9548391757468923e-06 6.024130496347555e-06 1.9471101750717476e-06 5.021027575953182e-06
 1.9548391757468923e-06 6.024130496347555e-06 1.9548391757468923e-06 6.024130496347555e-06 0.0030385566960640722 0.02130082566584718 0.9744068876021138 -0.22563344619907416
 7.071806349270377e-06 2.1809010693466373e-05 1.9471101750717476e-06 5.021027575953182e-06 0.9744068876021138 -0.22563344619907416 0.0030385566960640722 0.02130082566584718
497836734.6938775 0.0023947999548201413 0.021122875549498103 0.9827242690479635 -0.18479630786081377 1.9806353221376528e-06 6.076516181355706e-06 7.149930600514254e-06 2.1981822378841734e-05
 0.9827242690479635 -0.18479630786081377 0.0023947999548201413 0.021122875549498103 1.9806353221376528e-06 6.076516181355706e-06 1.994602788897726e-06 5.077346338060828e-06
 1.9806353221376528e-06 6.076516181355706e-06 1.9806353221376528e-06 6.076516181355706e-06 0.0031045485480847585 0.021512945927991307 0.9738499414253611 -0.22797071508733882
 7.25399228814328e-06 2.205106044324382e-05 1.994602788897726e-06 5.077346338060828e-06 0.9738499414253611 -0.22797071508733882 0.0031045485480847585 0.021512945927991307
502918367.3469387 0.0024473856550777727 0.021334471381635533 0.9823515721449012 -0.18669449856899362 2.005720794956666e-06 6.1300562539200374e-06 7.340623560895868e-06 2.2222541930283613e-05
 0.9823515721449012 -0.18669449856899362 0.0024473856550777727 0.021334471381635533 2.005720794956666e-06 6.1300562539200374e-06 2.041098038513464e-06 5.134811718080994e-06
 2.005720794956666e-06 6.1300562539200374e-06 2.005720794956666e-06 6.1300562539200374e-06 0.0031712783046213226 0.021724542968090923 0.973286040657603 -0.23030567970317806
 7.439100681782548e-06 2.2291688340349133e-05 2.041098038513464e-06 5.134811718080994e-06 0.973286040657603 -0.23030567970317806 0.0031712783046213226 0.021724542968090923
507999999.99999994 0.0025005752538349436 0.021545722575591893 0.9819742380862746 -0.18859127180147975 2.0301303216031667e-06 6.184768971326552e-06 7.534099170173531e-06 2.246181888310377e-05
 0.9819742380862746 -0.18859127180147975 0.0025005752538349436 0.021545722575591893 2.0301303216031667e-06 6.184768971326552e-06 2.0866378526161798e-06 5.1934364863149714e-06
 2.0301303216031667e-06 6.184768971326552e-06 2.0301303216031667e-06 6.184768971326552e-06 0.0032387369458640944 0.021935610212304692 0.9727152352778707 -0.23263829503383063
 7.627099420838256e-06 2.253086227945593e-05 2.0866378526161798e-06 5.1934364863149714e-06 0.9727152352778707 -0.23263829503383063 0.0032387369458640944 0.021935610212304692
513081632.6530612 0.0025543623307756522 0.021756624479891847 0.9815923006372744 -0.1904865995034571 2.053898895756403e-06 6.240671366108037e-06 7.730326093775806e-06 2.269962225066731e-05
 0.9815923006372744 -0.1904865995034571 0.0025543623307756522 0.021756624479891847 2.053898895756403e-06 6.240671366108037e-06 2.131264510762922e-06 5.253232414852663e-06
 2.053898895756403e-06 6.240671366108037e-06 2.053898895756403e-06 6.240671366108037e-06 0.0033069154231612076 0.022146141332112648 0.9721375755077573 -0.2349685178378963
 7.817956215714363e-06 2.2768551401910957e-05 2.131264510762922e-06 5.253232414852663e-06 0.9721375755077573 -0.2349685178378963 0.0033069154231612076 0.022146141332112648
518163265.3061224 0.0026087404504349567 0.021967172613568675 0.9812057936915418 -0.19238045480141755 2.0770617394315864e-06 6.297779266216901e-06 7.929272884615613e-06 2.2935922273291476e-05
 0.9812057936915418 -0.19238045480141755 0.0026087404504349567 0.021967172613568675 2.0770617394315864e-06 6.297779266216901e-06 2.1750205931568315e-06 5.314210293347407e-06
 2.0770617394315864e-06 6.297779266216901e-06 2.0770617394315864e-06 6.297779266216901e-06 0.0033758046666916503 0.022356130240058916 0.9715531117558612 -0.23729630661366236
 8.01163863604719e-06 2.300472607320515e-05 2.1750205931568315e-06 5.314210293347407e-06 0.9715531117558612 -0.23729630661366236 0.0033758046666916503 0.022356130240058916
523244897.95918363 0.0026637031679159562 0.022177362663092733 0.9808147512346452 -0.19427281198128282 2.0996542667911236e-06 6.356107315582983e-06 8.130908018167819e-06 2.3170690395222172e-05
 0.9808147512346452 -0.19427281198128282 0.0026637031679159562 0.022177362663092733 2.0996542667911236e-06 6.356107315582983e-06 2.21794893276393e-06 5.376379945087935e-06
 2.0996542667911236e-06 6.356107315582983e-06 2.0996542667911236e-06 6.356107315582983e-06 0.0034453955927884732 0.022565571085420046 0.970961894564785 -0.23962162156682665
 8.208114148372947e-06 2.323935786001074e-05 2.21794893276393e-06 5.376379945087935e-06 0.970961894564785 -0.23962162156682665 0.0034453955927884732 0.022565571085420046
528326530.61224484 0.002719244034336535 0.02238719047925276 0.980419207309267 -0.19616364646618628 2.1217120496578146e-06 6.415668994994338e-06 8.335199925919697e-06 2.3403899241246942e-05
 0.980419207309267 -0.19616364646618628 0.002719244034336535 0.02238719047925276 2.1217120496578146e-06 6.415668994994338e-06 2.2600925696892064e-06 5.439750243320168e-06
 2.1217120496578146e-06 6.415668994994338e-06 2.1217120496578146e-06 6.415668994994338e-06 0.0035156791109256192 0.022774458249805073 0.9703639745606139 -0.2419444245777203
 8.407350152039046e-06 2.3472419506856043e-05 2.2600925696892064e-06 5.439750243320168e-06 0.9703639745606139 -0.2419444245777203 0.0035156791109256192 0.022774458249805073
533408163.2653061 0.002775356602020512 0.02259665207399525 0.9800191959820488 -0.19805293479397407 2.1432707846763687e-06 6.476476643243214e-06 8.542117027244483e-06 2.3635522593011064e-05
 0.9800191959820488 -0.19805293479397407 0.002775356602020512 0.02259665207399525 2.1432707846763687e-06 6.476476643243214e-06 2.301494707740421e-06 5.504329127774694e-06
 2.1432707846763687e-06 6.476476643243214e-06 2.1432707846763687e-06 6.476476643243214e-06 0.0035866461303709764 0.02298278634270041 0.9697594024048021 -0.24426467916811553
 8.609314013413514e-06 2.370388491250448e-05 2.301494707740421e-06 5.504329127774694e-06 0.9697594024048021 -0.24426467916811553 0.0035866461303709764 0.02298278634270041
538489795.9183674 0.002832034429436764 0.0228057436172358 0.9796147513120399 -0.19994065459448712 2.1643662620697364e-06 6.538541478483694e-06 8.751627759748196e-06 2.3865535365098806e-05
 0.9796147513120399 -0.19994065459448712 0.002832034429436764 0.0228057436172358 2.1643662620697364e-06 6.538541478483694e-06 2.342198673108153e-06 5.570123621358857e-06
 2.1643662620697364e-06 6.538541478483694e-06 2.1643662620697364e-06 6.538541478483694e-06 0.003658287566523597 0.023190550196970777 0.969148228748386 -0.2465823504677121
 8.813973098447236e-06 2.393372910609954e-05 2.342198673108153e-06 5.570123621358857e-06 0.969148228748386 -0.2465823504677121 0.003658287566523597 0.023190550196970777
543571428.5714285 0.0028892710858951197 0.02301446143364279 0.9792059073207003 -0.20182678456667452 2.1850343359368222e-06 6.601873619751155e-06 8.963700608139463e-06 2.409391358093688e-05
 0.9792059073207003 -0.20182678456667452 0.0028892710858951197 0.02301446143364279 2.1850343359368222e-06 6.601873619751155e-06 2.3822478750908057e-06 5.637139846975405e-06
 2.1850343359368222e-06 6.601873619751155e-06 2.1850343359368222e-06 6.601873619751155e-06 0.0037305943469392137 0.023397744864327955 0.9685305041884529 -0.24889740518037579
 9.021294803642998e-06 2.416192822313251e-05 2.3822478750908057e-06 5.637139846975405e-06 0.9685305041884529 -0.24889740518037579 0.0037305943469392137 0.023397744864327955
548653061.2244898 0.0029470601560095695 0.023222801999408713 0.9787926979634046 -0.20371130445559227 2.2053108960387852e-06 6.666482108597774e-06 9.178304131672324e-06 2.4320634348573457e-05
 0.9787926979634046 -0.20371130445559227 0.0029470601560095695 0.023222801999408713 2.2053108960387852e-06 6.666482108597774e-06 2.421685768794086e-06 5.705383044432505e-06
 2.2053108960387852e-06 6.666482108597774e-06 2.2053108960387852e-06 6.666482108597774e-06 0.003803557417058626 0.023604365610775287 0.9679062792267865 -0.2512098115502068
 9.231246585485719e-06 2.4388459481286103e-05 2.421685768794086e-06 5.705383044432505e-06 0.9679062792267865 -0.2512098115502068 0.003803557417058626 0.023604365610775287
553734693.877551 0.003005395243931647 0.023430761939005652 0.9783751571023955 -0.20559419502932977 2.225231841021457e-06 6.732374930801379e-06 9.395406990210655e-06 2.4545675836380935e-05
 0.9783751571023955 -0.20559419502932977 0.003005395243931647 0.023430761939005652 2.225231841021457e-06 6.732374930801379e-06 2.4605558197349406e-06 5.7748575874123364e-06
 2.225231841021457e-06 6.732374930801379e-06 2.225231841021457e-06 6.732374930801379e-06 0.003877167745643984 0.023810407912034873 0.9672756042306184 -0.25351953932750027
 9.443795988386648e-06 2.4613301156201986e-05 2.4605558197349406e-06 5.7748575874123364e-06 0.9672756042306184 -0.25351953932750027 0.003877167745643984 0.023810407912034873
558816326.5306122 0.0030642699773666513 0.02363833802193875 0.9779533184811365 -0.20747543805591015 2.244833053022231e-06 6.7995590381085845e-06 9.614977968963156e-06 2.476901724872771e-05
 0.9779533184811365 -0.20747543805591015 0.0030642699773666513 0.02363833802193875 2.244833053022231e-06 6.7995590381085845e-06 2.498901470281061e-06 5.845567000468244e-06
 2.244833053022231e-06 6.7995590381085845e-06 2.244833053022231e-06 6.7995590381085845e-06 0.003951416329937199 0.02401586744896798 0.9666385293954073 -0.25582655973467056
 9.658910671194746e-06 2.4836432557217398e-05 2.498901470281061e-06 5.845567000468244e-06 0.9666385293954073 -0.25582655973467056 0.003951416329937199 0.02401586744896798
563897959.1836734 0.003123678011376867 0.0238455271594997 0.9775272157000128 -0.20935501628019904 2.264150373610585e-06 6.868040369976179e-06 9.836986001936206e-06 2.4990638801660026e-05
 0.9775272157000128 -0.20935501628019904 0.003123678011376867 0.0238455271594997 2.264150373610585e-06 6.868040369976179e-06 2.536766107858104e-06 5.917513976022744e-06
 2.264150373610585e-06 6.868040369976179e-06 2.264150373610585e-06 6.868040369976179e-06 0.004026294200547853 0.024220740102996737 0.9659951047095799 -0.2581308454321847
 9.876558432326697e-06 2.5057834003111422e-05 2.536766107858104e-06 5.917513976022744e-06 0.9659951047095799 -0.2581308454321847 0.004026294200547853 0.024220740102996737
568979591.8367347 0.0031836130319800476 0.024052326401523903 0.9770968821933322 -0.2112329134008604 2.283219581012109e-06 6.937823875277499e-06 1.006140019415187e-05 2.5210521698631433e-05
 0.9770968821933322 -0.2112329134008604 0.0031836130319800476 0.024052326401523903 2.283219581012109e-06 6.937823875277499e-06 2.5741930348577862e-06 5.99070039134063e-06
 2.283219581012109e-06 6.937823875277499e-06 2.283219581012109e-06 6.937823875277499e-06 0.004101792426078286 0.024425021951530068 0.965345379921157 -0.26043237048456575
 1.0096707233566635e-05 2.5277486797898763e-05 2.5741930348577862e-06 5.99070039134063e-06 0.965345379921157 -0.26043237048456575 0.004101792426078286 0.024425021951530068
574061224.4897959 0.003244068759553381 0.024258732933159215 0.97666235120758 -0.21310911404739508 2.3020763685672374e-06 7.008913533943717e-06 1.0288189842676702e-05 2.5428648106314477e-05
 0.97666235120758 -0.21310911404739508 0.003244068759553381 0.024258732933159215 2.3020763685672374e-06 7.008913533943717e-06 2.6112254401817615e-06 6.065127325454034e-06
 2.3020763685672374e-06 7.008913533943717e-06 2.3020763685672374e-06 7.008913533943717e-06 0.004177902117501222 0.024628709263403777 0.9646894045061967 -0.26273111032651386
 1.0319325222585684e-05 2.5495373206705156e-05 2.6112254401817615e-06 6.065127325454034e-06 0.9646894045061967 -0.26273111032651386 0.004177902117501222 0.024628709263403777
579142857.1428571 0.0033050389520451174 0.024464744071646925 0.9762236557808752 -0.2149836037572822 2.3207563243765564e-06 7.081312378511998e-06 1.0517324456506863e-05 2.5645001130525933e-05
 0.9762236557808752 -0.2149836037572822 0.0033050389520451174 0.024464744071646925 2.3207563243765564e-06 7.081312378511998e-06 2.6479063723571166e-06 6.140795076017706e-06
 2.3207563243765564e-06 7.081312378511998e-06 2.3207563243765564e-06 7.081312378511998e-06 0.004254614432290819 0.02483179849433962 0.9640272276389881 -0.26502704172918384
 1.0544380754230004e-05 2.5711476431755774e-05 2.6479063723571166e-06 6.140795076017706e-06 0.9640272276389881 -0.26502704172918384 0.004254614432290819 0.02483179849433962
584224489.7959183 0.003366517408003455 0.02467035726311963 0.9757808287235868 -0.21685636895326274 2.339294912085941e-06 7.155022515555438e-06 1.0748773775353085e-05 2.5859564792293992e-05
 0.9757808287235868 -0.21685636895326274 0.003366517408003455 0.02467035726311963 2.339294912085941e-06 7.155022515555438e-06 2.684278714161137e-06 6.217703176075051e-06
 2.339294912085941e-06 7.155022515555438e-06 2.339294912085941e-06 7.155022515555438e-06 0.00433192057832299 0.025034286282425093 0.963358898163928 -0.26732014276666366
 1.0771842410625248e-05 2.592578058850478e-05 2.684278714161137e-06 6.217703176075051e-06 0.963358898163928 -0.26732014276666366 0.00433192057832299 0.025034286282425093
589306122.4489795 0.0034284979694315042 0.02487557007942377 0.9753339026000644 -0.218727396920779 2.3577274527658164e-06 7.230045146971666e-06 1.0982507787368729e-05 2.607232400409312e-05
 0.9753339026000644 -0.218727396920779 0.0034284979694315042 0.02487557007942377 2.3577274527658164e-06 7.230045146971666e-06 2.7203851586944493e-06 6.295850410716891e-06
 2.3577274527658164e-06 7.230045146971666e-06 2.3577274527658164e-06 7.230045146971666e-06 0.0044098118175493264 0.02523616944362625 0.9626844645690115 -0.26961039278268784
 1.1001679020143988e-05 2.6138270681932058e-05 2.7203851586944493e-06 6.295850410716891e-06 0.9626844645690115 -0.26961039278268784 0.0044098118175493264 0.02523616944362625
594387755.1020408 0.003490974524471203 0.025080380214961097 0.9748829097114365 -0.22059667578560063 2.3760891078400093e-06 7.3063805911092525e-06 1.1218496745862638e-05 2.628326454627025e-05
 0.9748829097114365 -0.22059667578560063 0.003490974524471203 0.025080380214961097 2.3760891078400093e-06 7.3063805911092525e-06 2.756268186843181e-06 6.375234833616872e-06
 2.3760891078400093e-06 7.3063805911092525e-06 2.3760891078400093e-06 7.3063805911092525e-06 0.004488279469455625 0.025437444967328738 0.9620039749608802 -0.27189777235761836
 1.1233859675281488e-05 2.634893258302999e-05 2.756268186843181e-06 6.375234833616872e-06 0.9620039749608802 -0.27189777235761836 0.004488279469455625 0.025437444967328738
599469387.755102 0.003553941009924534 0.025284785483560508 0.9744278820794394 -0.22246419449165003 2.3944148630210133e-06 7.384028303713059e-06 1.1456711185037693e-05 2.6492373043682756e-05
 0.9744278820794394 -0.22246419449165003 0.003553941009924534 0.025284785483560508 2.3944148630210133e-06 7.384028303713059e-06 2.791970046072599e-06 6.455853783428542e-06
 2.3944148630210133e-06 7.384028303713059e-06 2.3944148630210133e-06 7.384028303713059e-06 0.004567314914311647 0.025638110011918132 0.961317477041361 -0.27418226327572454
 1.146835374948409e-05 2.6557753005501418e-05 2.791970046072599e-06 6.455853783428542e-06 0.961317477041361 -0.27418226327572454 0.004567314914311647 0.025638110011918132
604551020.4081632 0.003617391413619973 0.02548878381537672 0.9739688514312257 -0.22432994277905147 2.412739513209544e-06 7.4629868986715185e-06 1.1697121934794386e-05 2.6699636942567387e-05
 0.9739688514312257 -0.22432994277905147 0.003617391413619973 0.02548878381537672 2.412739513209544e-06 7.4629868986715185e-06 2.8275327304961012e-06 6.5377039000309585e-06
 2.412739513209544e-06 7.4629868986715185e-06 2.412739513209544e-06 7.4629868986715185e-06 0.004646909596221724 0.02583816190039884 0.9606250180854374 -0.27646384849278516
 1.1705130912973044e-05 2.6764719482687366e-05 2.8275327304961012e-06 6.5377039000309585e-06 0.9606250180854374 -0.27646384849278516 0.004646909596221724 0.02583816190039884
609632653.0612245 0.003681319776626842 0.025692373253822873 0.9735058491851256 -0.2261939111624157 2.431097648317662e-06 7.543254168550567e-06 1.1939700134638056e-05 2.6905044487656537e-05
 0.9735058491851256 -0.2261939111624157 0.003681319776626842 0.025692373253822873 2.431097648317662e-06 7.543254168550567e-06 2.8629979621653903e-06 6.620781140610696e-06
 2.431097648317662e-06 7.543254168550567e-06 2.431097648317662e-06 7.543254168550567e-06 0.0047270550259823135 0.02603759811605751 0.9599266449205931 -0.27874251210403966
 1.1944161147605437e-05 2.696982034474111e-05 2.8629979621653903e-06 6.620781140610696e-06 0.9599266449205931 -0.27874251210403966 0.0047270550259823135 0.02603759811605751
614714285.7142857 0.0037457201953262206 0.025895551952533936 0.9730389064373093 -0.2280560909093751 2.449523639975916e-06 7.62482710490059e-06 1.2184417246726667e-05 2.7108584699556843e-05
 0.9730389064373093 -0.2280560909093751 0.0037457201953262206 0.025895551952533936 2.449523639975916e-06 7.62482710490059e-06 2.89840717352906e-06 6.705080795569487e-06
 2.449523639975916e-06 7.62482710490059e-06 2.449523639975916e-06 7.62482710490059e-06 0.004807742783753834 0.02623641629817142 0.9592224039074759 -0.281018239312507
 1.2185414760812427e-05 2.7173044696063418e-05 2.89840717352906e-06 6.705080795569487e-06 0.9592224039074759 -0.281018239312507 0.004807742783753834 0.02623641629817142
619795918.3673469 0.0038105868233433405 0.026098318172367217 0.97256805394932 -0.22991647401938328 2.468051629086294e-06 7.707701918324248e-06 1.2431245068095705e-05 2.731024735240314e-05
 0.97256805394932 -0.22991647401938328 0.0038105868233433405 0.026098318172367217 2.468051629086294e-06 7.707701918324248e-06 2.933801491008822e-06 6.7905975042479665e-06
 2.468051629086294e-06 7.707701918324248e-06 2.468051629086294e-06 7.707701918324248e-06 0.004888964521558336 0.026434614237765233 0.9585123409218208 -0.28329101639769083
 1.2428862398654239e-05 2.7374382393012077e-05 2.933801491008822e-06 6.7905975042479665e-06 0.9585123409218208 -0.28329101639769083 0.004888964521558336 0.026434614237765233
624877551.0204082 0.0038759138733465257 0.026300670278439412 0.9720933221364393 -0.23177505320278938 2.4867155141839442e-06 7.791874058294488e-06 1.2680155742094685e-05 2.7510022951799125e-05
 0.9720933221364393 -0.23177505320278938 0.0038759138733465257 0.026300670278439412 2.4867155141839442e-06 7.791874058294488e-06 2.969221719644035e-06 6.877325270456851e-06
 2.4867155141839442e-06 7.791874058294488e-06 2.4867155141839442e-06 7.791874058294488e-06 0.004970711965603611 0.026632189873419875 0.957796501337587 -0.28556083068469096
 1.2674475058029345e-05 2.757382402189681e-05 2.969221719644035e-06 6.877325270456851e-06 0.957796501337587 -0.28556083068469096 0.004970711965603611 0.026632189873419875
629959183.6734693 0.00394169561872008 0.02650260673720058 0.9716147410568482 -0.23363182186019607 2.505548940571904e-06 7.877338232713262e-06 1.2931121769069009e-05 2.7707902713054705e-05
 0.9716147410568482 -0.23363182186019607 0.00394169561872008 0.02650260673720058 2.505548940571904e-06 7.877338232713262e-06 3.004708328756942e-06 6.9652574778080684e-06
 2.505548940571904e-06 7.877338232713262e-06 2.505548940571904e-06 7.877338232713262e-06 0.005052976918445578 0.026829141287132877 0.9570749300112477 -0.2878276705137281
 1.2922224098074533e-05 2.777136087726985e-05 3.004708328756942e-06 6.9652574778080684e-06 0.9570749300112477 -0.2878276705137281 0.005052976918445578 0.026829141287132877
635040816.3265306 0.00400792639511306 0.026704126113549734 0.9711323404015519 -0.23548677406210972 2.524585290194369e-06 7.96408842720277e-06 1.3184116016320075e-05 2.790387853972829e-05
 0.9711323404015519 -0.23548677406210972 0.00400792639511306 0.026704126113549734 2.524585290194369e-06 7.96408842720277e-06 3.040301438592806e-06 7.054386904839116e-06
 2.524585290194369e-06 7.96408842720277e-06 2.524585290194369e-06 7.96408842720277e-06 0.005135751260993649 0.027025466700234202 0.9563476712671951 -0.29009152521010234
 1.317208125079119e-05 2.7966984940520144e-05 3.040301438592806e-06 7.054386904839116e-06 0.9563476712671951 -0.29009152521010234 0.005135751260993649 0.027025466700234202
640122448.9795918 0.004074600601872878 0.02690522706798848 0.9706461494850349 -0.23733990452889225 2.5438576722151566e-06 8.052117924122192e-06 1.3439111727374819e-05 2.8097943002481754e-05
 0.9706461494850349 -0.23733990452889225 0.004074600601872878 0.02690522706798848 2.5438576722151566e-06 8.052117924122192e-06 3.0760408078905473e-06 7.144705739925056e-06
 2.5438576722151566e-06 8.052117924122192e-06 2.5438576722151566e-06 8.052117924122192e-06 0.005219026954366515 0.027221164469356768 0.955614768884202 -0.2923523850545906
 1.342401863093178e-05 2.816068885877893e-05 3.0760408078905473e-06 7.144705739925056e-06 0.955614768884202 -0.2923523850545906 0.005219026954366515 0.027221164469356768
645204081.632653 0.00414171270336463 0.027105908353817154 0.97015619723661 -0.23919120861101523 2.5633989142692404e-06 8.141419321303668e-06 1.3696082530595036e-05 2.829008931825329e-05
 0.97015619723661 -0.23919120861101523 0.00414171270336463 0.027105908353817154 2.5633989142692404e-06 8.141419321303668e-06 3.111965822341214e-06 7.236205595972843e-06
 2.5633989142692404e-06 8.141419321303668e-06 2.5633989142692404e-06 8.141419321303668e-06 0.0053027960416026435 0.027416233082465206 0.9548762660829008 -0.2946102412542922
 1.3678008745179306e-05 2.8352465924142084e-05 3.111965822341214e-06 7.236205595972843e-06 0.9548762660829008 -0.2946102412542922 0.0053027960416026435 0.027416233082465206
650285714.2857143 0.004209257230185147 0.027306168814373855 0.9696625121924397 -0.24104068226962846 2.5832415543564974e-06 8.231984550502702e-06 1.3955002447156e-05 2.8480311329753825e-05
 0.9696625121924397 -0.24104068226962846 0.004209257230185147 0.027306168814373855 2.5832415543564974e-06 8.231984550502702e-06 3.1481154838932737e-06 7.328877524894103e-06
 2.5832415543564974e-06 8.231984550502702e-06 2.5832415543564974e-06 8.231984550502702e-06 0.0053870506492339435 0.027610671154943665 0.9541322055142323 -0.29686508591393274
 1.393402450065167e-05 2.8542310053214743e-05 3.1481154838932737e-06 7.328877524894103e-06 0.9541322055142323 -0.29686508591393274 0.0053870506492339435 0.027610671154943665
655367346.9387754 0.0042772287802714795 0.02750600738031369 0.9691651224881931 -0.24288832205743888 2.6034178333478054e-06 8.323804895558475e-06 1.4215845898422092e-05 2.866860348529019e-05
 0.9691651224881931 -0.24288832205743888 0.0042772287802714795 0.02750600738031369 2.6034178333478054e-06 8.323804895558475e-06 3.1845284008650115e-06 7.422712031852431e-06
 2.6034178333478054e-06 8.323804895558475e-06 2.6034178333478054e-06 8.323804895558475e-06 0.0054717829887266254 0.02780447742574056 0.9533826292488222 -0.29911691200762863
 1.4192039212760913e-05 2.8730215766981397e-05 3.1845284008650115e-06 7.422712031852431e-06 0.9533826292488222 -0.29911691200762863 0.0054717829887266254 0.02780447742574056
660448979.5918367 0.004345622019914676 0.027705423066933677 0.9686640558523116 -0.24473412509991077 2.6239596880748973e-06 8.41687101026097e-06 1.447858771274709e-05 2.8854960818918705e-05
 0.9686640558523116 -0.24473412509991077 0.004345622019914676 0.027705423066933677 2.6239596880748973e-06 8.41687101026097e-06 3.2212427788261122e-06 7.517699089282617e-06
 2.6239596880748973e-06 8.41687101026097e-06 2.6239596880748973e-06 8.41687101026097e-06 0.00555698535779562 0.027997650753575895 0.9526275787672467 -0.3013657133511211
 1.4452026612457204e-05 2.8916178171005207e-05 3.2212427788261122e-06 7.517699089282617e-06 0.9526275787672467 -0.3013657133511211 0.00555698535779562 0.027997650753575895
665530612.244898 0.00441443168467409 0.02790441497153939 0.9681593395998555 -0.24657808907678255 2.6448987449763977e-06 8.511172935921917e-06 1.4743203131724736e-05 2.903937893093041e-05
 0.9681593395998555 -0.24657808907678255 0.00441443168467409 0.02790441497153939 2.6448987449763977e-06 8.511172935921917e-06 3.258296412211764e-06 7.61382815067903e-06
 2.6448987449763977e-06 8.511172935921917e-06 2.6448987449763977e-06 8.511172935921917e-06 0.0056426501415980605 0.028190190113207603 0.9518670949511404 -0.30361148457447745
 1.4713960852885292e-05 2.9100192935957703e-05 3.258296412211764e-06 7.61382815067903e-06 0.9518670949511404 -0.30361148457447745 0.0056426501415980605 0.028190190113207603
670612244.8979591 0.004483652580206626 0.028102982270856183 0.9676510006269088 -0.24842021220390748 2.6662663142736084e-06 8.60670011864794e-06 1.5009667815915028e-05 2.92218539686701e-05
 0.9676510006269088 -0.24842021220390748 0.004483652580206626 0.028102982270856183 2.6662663142736084e-06 8.60670011864794e-06 3.295726676634204e-06 7.711088164151706e-06
 2.6662663142736084e-06 8.60670011864794e-06 2.6662663142736084e-06 8.60670011864794e-06 0.0057287698138103966 0.028382094591759614 0.9511012180751186 -0.30585422109526794
 1.4977816515480963e-05 2.928225627848106e-05 3.295726676634204e-06 7.711088164151706e-06 0.9511012180751186 -0.30585422109526794 0.0057287698138103966 0.028382094591759614
675693877.5510204 0.004553279583006175 0.028301124218483995 0.9671390654055129 -0.2502604932154144 2.688093384650471e-06 8.703441426314312e-06 1.527795785007011e-05 2.9402382607689147e-05
 0.9671390654055129 -0.2502604932154144 0.004553279583006175 0.028301124218483995 2.688093384650471e-06 8.703441426314312e-06 3.3335705218578625e-06 7.809467585748521e-06
 2.688093384650471e-06 8.703441426314312e-06 2.688093384650471e-06 8.703441426314312e-06 0.005815336937594798 0.028573363385110812 0.950329987799468 -0.30809391909221506
 1.5243568615533185e-05 2.9462364942383015e-05 3.3335705218578625e-06 7.809467585748521e-06 0.950329987799468 -0.30809391909221506 0.005815336937594798 0.028573363385110812
680775510.2040815 0.004623307641062821 0.028498840142396186 0.9666235599791075 -0.2520989313461924 2.710410618413486e-06 8.8013851652387e-06 1.554804974788309e-05 2.9580962033232284e-05
 0.9666235599791075 -0.2520989313461924 0.004623307641062821 0.028498840142396186 2.710410618413486e-06 8.8013851652387e-06 3.371864465405833e-06 7.908954392542656e-06
 2.710410618413486e-06 8.8013851652387e-06 2.710410618413486e-06 8.8013851652387e-06 0.00590234416645872 0.028763995794345763 0.9495534431635753 -0.31033057547931847
 1.551119260723721e-05 2.9640516180164483e-05 3.371864465405833e-06 7.908954392542656e-06 0.9495534431635753 -0.31033057547931847 0.00590234416645872 0.028763995794345763
685857142.8571428 0.00469373177443999 0.028696129442484165 0.9661045099584498 -0.25393552631469724 2.7332483471079883e-06 8.900519096554606e-06 1.5819920456282007e-05 2.975758992205763e-05
 0.9661045099584498 -0.25393552631469724 0.00469373177443999 0.028696129442484165 2.7332483471079883e-06 8.900519096554606e-06 3.4106445867665087e-06 8.009536095484849e-06
 2.7332483471079883e-06 8.900519096554606e-06 2.7332483471079883e-06 8.900519096554606e-06 0.005989784245013879 0.028953991222269358 0.9487716225800583 -0.3125641878804526
 1.5780664388262533e-05 2.9816707734879318e-05 3.4106445867665087e-06 8.009536095484849e-06 0.9487716225800583 -0.3125641878804526 0.005989784245013879 0.028953991222269358
690938775.5102041 0.004764547075780989 0.028892991588141386 0.965581940518 -0.25577027830607835 2.75663656756834e-06 9.000830452284893e-06 1.60935473592902e-05 2.9932264424588915e-05
 0.965581940518 -0.25577027830607835 0.004764547075780989 0.028892991588141386 2.75663656756834e-06 9.000830452284893e-06 3.4499465221706185e-06 8.111199752020345e-06
 2.75663656756834e-06 9.000830452284893e-06 2.75663656756834e-06 9.000830452284893e-06 0.006077650009638097 0.02914334916997775 0.9479845638295709 -0.31479475460444006
 1.6051960303858788e-05 2.9990937822324985e-05 3.4499465221706185e-06 8.111199752020345e-06 0.9479845638295709 -0.31479475460444006 0.006077650009638097 0.02914334916997775
696020408.1632652 0.004835748710739798 0.029089426115897453 0.9650558763927417 -0.2576031879556257 2.7806049383805054e-06 9.102305951115857e-06 1.6368908281473646e-05 3.010498414739779e-05
 0.9650558763927417 -0.2576031879556257 0.004835748710739798 0.029089426115897453 2.7806049383805054e-06 9.102305951115857e-06 3.4898054599100624e-06 8.213931978470686e-06
 2.7806049383805054e-06 9.102305951115857e-06 2.7806049383805054e-06 9.102305951115857e-06 0.0061659343890428115 0.02933206923349727 0.947192304056242 -0.31702227462059285
 1.6325057150521573e-05 3.0163205113562398e-05 3.4898054599100624e-06 8.213931978470686e-06 0.947192304056242 -0.31702227462059285 0.0061659343890428115 0.02933206923349727
701102040.8163265 0.004907331918343754 0.029285432627090505 0.9645263418754223 -0.25943425633253697 2.8051827767363067e-06 9.204931813873236e-06 1.664598149099512e-05 3.027574813601459e-05
 0.9645263418754223 -0.25943425633253697 0.004907331918343754 0.029285432627090505 2.8051827767363067e-06 9.204931813873236e-06 3.5302561361712756e-06 8.317718962181004e-06
 2.8051827767363067e-06 9.204931813873236e-06 2.8051827767363067e-06 9.204931813873236e-06 0.006254630404754091 0.02952015110047976 0.9463948797637298 -0.31924674753472504
 1.659993217923975e-05 3.033350871776292e-05 3.5302561361712756e-06 8.317718962181004e-06 0.9463948797637298 -0.31924674753472504 0.006254630404754091 0.02952015110047976
706183673.4693877 0.004979292011292035 0.029481010785587056 0.9639933608141884 -0.261263484923998 2.8303990556595554e-06 9.308693778701461e-06 1.6924745702293523e-05 3.0444555858064745e-05
 0.9639933608141884 -0.261263484923998 0.004979292011292035 0.029481010785587056 2.8303990556595554e-06 9.308693778701461e-06 3.5713328313567794e-06 8.422546473433623e-06
 2.8303990556595554e-06 9.308693778701461e-06 2.8303990556595554e-06 9.308693778701461e-06 0.0063437311715070265 0.029707594546963104 0.9455923268118506 -0.32146817356562957
 1.687656309834392e-05 3.050184816538001e-05 3.5713328313567794e-06 8.422546473433623e-06 0.9455923268118506 -0.32146817356562957 0.0063437311715070265 0.029707594546963104
711265306.1224489 0.0050516243761893 0.02967616031554189 0.9634569566106047 -0.2630908756195779 2.8562824015850944e-06 9.41357711594789e-06 1.7205180078407097e-05 3.0611407186727745e-05
 0.9634569566106047 -0.2630908756195779 0.0050516243761893 0.02967616031554189 2.8562824015850944e-06 9.41357711594789e-06 3.613069366869931e-06 8.52839987712895e-06
 2.8562824015850944e-06 9.41357711594789e-06 2.8562824015850944e-06 9.41357711594789e-06 0.006433229897560541 0.029894399434189135 0.944784680413766 -0.3236865535220195
 1.7154928075976145e-05 3.066822339164241e-05 3.613069366869931e-06 8.52839987712895e-06 0.944784680413766 -0.3236865535220195 0.006433229897560541 0.029894399434189135
716346938.7755102 0.005124324473721776 0.02987088099920326 0.962917152218032 -0.26491643069593707 2.8828610922725623e-06 9.519566642754335e-06 1.7487264232957245e-05 3.0776302384515964e-05
 0.962917152218032 -0.26491643069593707 0.005124324473721776 0.02987088099920326 2.8828610922725623e-06 9.519566642754335e-06 3.655499102338735e-06 8.635264144235176e-06
 2.8828610922725623e-06 9.519566642754335e-06 2.8828610922725623e-06 9.519566642754335e-06 0.006523119884934599 0.030080565705485084 0.9439719751336952 -0.32590188877992443
 1.7435005742199307e-05 3.0832634720366075e-05 3.655499102338735e-06 8.635264144235176e-06 0.9439719751336952 -0.32590188877992443 0.006523119884934599 0.030080565705485084
721428571.4285713 0.005197387838775123 0.03006517267475949 0.9623739701403484 -0.2667401528018399 2.9101630550374863e-06 9.626646737358052e-06 1.777097823180995e-05 3.093924208736929e-05
 0.9623739701403484 -0.2667401528018399 0.005197387838775123 0.03006517267475949 2.9101630550374863e-06 9.626646737358052e-06 3.6986549332558604e-06 8.743123863008198e-06
 2.9101630550374863e-06 9.626646737358052e-06 2.9101630550374863e-06 9.626646737358052e-06 0.00661339452957309 0.030266093383202738 0.943154244885128 -0.32811418126054404
 1.771677519076366e-05 3.099508284808097e-05 3.6986549332558604e-06 8.743123863008198e-06 0.943154244885128 -0.32811418126054404 0.00661339452957309 0.030266093383202738
726510204.0816326 0.005270810080496245 0.03025903523422746 0.9618274324309974 -0.26856204494347397 2.9382158652830318e-06 9.734801353104903e-06 1.8056302594430393e-05 3.1100227289062094e-05
 0.9618274324309974 -0.26856204494347397 0.005270810080496245 0.03025903523422746 2.9382158652830318e-06 9.734801353104903e-06 3.7425692890127058e-06 8.851963249983544e-06
 2.9382158652830318e-06 9.734801353104903e-06 2.9382158652830318e-06 9.734801353104903e-06 0.006704047321436726 0.030450982565718654 0.9423315229295148 -0.33032343340854886
 1.800021598054823e-05 3.115556882846927e-05 3.7425692890127058e-06 8.851963249983544e-06 0.9423315229295148 -0.33032343340854886 0.006704047321436726 0.030450982565718654
731591836.7346939 0.005344586882307934 0.03045246862138354 0.9612775606923502 -0.2703821104700712 2.9670467453165567e-06 9.8440140321775e-06 1.834321829494639e-05 3.125925932591852e-05
 0.9612775606923502 -0.2703821104700712 0.005344586882307934 0.03045246862138354 2.9670467453165567e-06 9.8440140321775e-06 3.787274131306686e-06 8.961766160742255e-06
 2.9670467453165567e-06 9.8440140321775e-06 2.9670467453165567e-06 9.8440140321775e-06 0.006795071844529471 0.030635233424493435 0.9415038418754127 -0.33252964817082603
 1.8285308136693118e-05 3.131409405711085e-05 3.787274131306686e-06 8.961766160742255e-06 0.9415038418754127 -0.33252964817082603 0.006795071844529471 0.030635233424493435
736673469.387755 0.005418714001867837 0.030645472829735766 0.9607243760753593 -0.2722003530598242 2.9966825634355333e-06 9.954267919041348e-06 1.863170676293452e-05 3.1416339861831744e-05
 0.9607243760753593 -0.2722003530598242 0.005418714001867837 0.030645472829735766 2.9966825634355333e-06 9.954267919041348e-06 3.832800952901355e-06 9.072516100452716e-06
 2.9966825634355333e-06 9.954267919041348e-06 2.9966825634355333e-06 9.954267919041348e-06 0.006886461776859533 0.030818846201188334 0.940671233678061 -0.33473282897566525
 1.857203215143803e-05 3.1470660256531965e-05 3.832800952901355e-06 9.072516100452716e-06 0.940671233678061 -0.33473282897566525 0.006886461776859533 0.030818846201188334
741755102.0408163 0.005493187270985635 0.030838047900536198 0.9601678992794944 -0.2740167767060981 3.027149833268497e-06 1.006554577361217e-05 1.8921749883943678e-05 3.157147087358311e-05
 0.9601678992794944 -0.2740167767060981 0.005493187270985635 0.030838047900536198 3.027149833268497e-06 1.006554577361217e-05 3.879180776720443e-06 9.184196234190783e-06
 3.027149833268497e-06 1.006554577361217e-05 3.027149833268497e-06 1.006554577361217e-05 0.0069782108903409384 0.03100182120484288 0.9398337296393711 -0.3369329797123751
 1.8860368984682742e-05 3.1625269461552724e-05 3.879180776720443e-06 9.184196234190783e-06 0.9398337296393711 -0.3369329797123751 0.0069782108903409384 0.03100182120484288
746836734.6938775 0.005568002595491705 0.031030193920833508 0.9596081505529478 -0.2758313857039314 3.058474713356846e-06 1.0177829984147783e-05 1.9213329999768696e-05 3.17246546364562e-05
 0.9596081505529478 -0.2758313857039314 0.005568002595491705 0.031030193920833508 3.058474713356846e-06 1.0177829984147783e-05 3.926444155257149e-06 9.296789397040365e-06
 3.058474713356846e-06 1.0177829984147783e-05 3.058474713356846e-06 1.0177829984147783e-05 0.007070313050635135 0.031184158809104686 0.9389913604083 -0.33913010471133054
 1.9150300064283e-05 3.177792400492891e-05 3.926444155257149e-06 9.296789397040365e-06 0.9389913604083 -0.33913010471133054 0.007070313050635135 0.031184158809104686
751918367.3469387 0.00564315595506555 0.03122191102156651 0.959045149693091 -0.27764418463682405 3.0906830069643465e-06 1.029110257986801e-05 1.9506429908487288e-05 3.187589371014173e-05
 0.959045149693091 -0.27764418463682405 0.00564315595506555 0.03122191102156651 3.0906830069643465e-06 1.029110257986801e-05 3.974621170281377e-06 9.410278103977164e-06
 3.0906830069643465e-06 1.029110257986801e-05 3.0906830069643465e-06 1.029110257986801e-05 0.007162762216939293 0.03136585944952093 0.9381441559816015 -0.34132420872443997
 1.9441807286096264e-05 3.192862650328369e-05 3.974621170281377e-06 9.410278103977164e-06 0.9381441559816015 -0.34132420872443997 0.007162762216939293 0.03136585944952093
757000000.0 0.005718643403021836 0.031413199375696144 0.958478916047172 -0.2794551783638033 3.1238001621014453e-06 1.040534524330618e-05 1.9801032864272185e-05 3.202519092492808e-05
 0.958478916047172 -0.2794551783638033 0.005718643403021836 0.031413199375696144 3.1238001621014453e-06 1.040534524330618e-05 4.023741432827952e-06 9.524644559537856e-06
 3.1238001621014453e-06 1.040534524330618e-05 3.1238001621014453e-06 1.040534524330618e-05 0.007255552441719468 0.03154692362088415 0.9372921457049256 -0.3435152969060276
 1.9734873013789716e-05 3.2077379843323995e-05 4.023741432827952e-06 9.524644559537856e-06 0.9372921457049256 -0.3435152969060276 0.007255552441719468 0.03154692362088415
762081632.6530612 0.005794461066057757 0.03160405919637507 0.9579094685132415 -0.28126437200677074 3.157851271752276e-06 1.052053932239597e-05 2.0097122576990212e-05 3.2172549368172626e-05
 0.9579094685132415 -0.28126437200677074 0.005794461066057757 0.03160405919637507 3.157851271752276e-06 1.052053932239597e-05 4.073834083449886e-06 9.63987066727758e-06
 3.157851271752276e-06 1.052053932239597e-05 3.157851271752276e-06 1.052053932239597e-05 0.007348677870395275 0.03172735187463204 0.9364353582742517 -0.3457033747941272
 2.0029480078423484e-05 3.222418716833734e-05 4.073834083449886e-06 9.63987066727758e-06 0.9364353582742517 -0.3457033747941272 0.007348677870395275 0.03172735187463204
767163265.3061224 0.005870605143964954 0.031794490735157534 0.9573368255412981 -0.2830717709381191 3.1928610742927126e-06 1.0636665842297373e-05 2.039468321159964e-05 3.231797237104945e-05
 0.9573368255412981 -0.2830717709381191 0.005870605143964954 0.031794490735157534 3.1928610742927126e-06 1.0636665842297373e-05 4.124927792721404e-06 9.755938039018332e-06
 3.1928610742927126e-06 1.0636665842297373e-05 3.1928610742927126e-06 1.0636665842297373e-05 0.0074421327409766765 0.031907144816302815 0.9355738217376418 -0.3478884482921772
 2.0325611777820917e-05 3.236905186496386e-05 4.124927792721404e-06 9.755938039018332e-06 0.9355738217376418 -0.3478884482921772 0.0074421327409766765 0.031907144816302815
772244897.9591836 0.0059470719093047 0.031984494280246856 0.956761005134633 -0.284877380768619 3.2288539540883457e-06 1.0753705516965572e-05 2.0693699387356053e-05 3.2461463495567515e-05
 0.956761005134633 -0.284877380768619 0.0059470719093047 0.031984494280246856 3.2288539540883457e-06 1.0753705516965572e-05 4.177050761976085e-06 9.872828003891064e-06
 3.2288539540883457e-06 1.0753705516965572e-05 3.2288539540883457e-06 1.0753705516965572e-05 0.007535911383653702 0.03208630310304579 0.9347075634972911 -0.35007052365111313
 2.0623251875737043e-05 3.2511977550238545e-05 4.177050761976085e-06 9.872828003891064e-06 0.9347075634972911 -0.35007052365111313 0.007535911383653702 0.03208630310304579
777326530.6122448 0.006023857707051753 0.03217407015477545 0.9561820248513775 -0.28668120733557073 3.265853942261689e-06 1.0871638760466842e-05 2.0994156176837467e-05 3.2603026521855376e-05
 0.9561820248513775 -0.28668120733557073 0.006023857707051753 0.03217407015477545 3.265853942261689e-06 1.0871638760466842e-05 4.230230724266182e-06 9.99052161717445e-06
 3.265853942261689e-06 1.0871638760466842e-05 3.265853942261689e-06 1.0871638760466842e-05 0.00763000822034426 0.03226482744118253 0.9338366103118657 -0.35224960745184913
 2.0922384600836673e-05 3.2652968058898924e-05 4.230230724266182e-06 9.99052161717445e-06 0.9338366103118657 -0.35224960745184913 0.00763000822034426 0.03226482744118253
782408163.2653061 0.006100958954203501 0.032363218715129295 0.9555999018062281 -0.2884832566912106 3.3038847176185104e-06 1.0990445698045182e-05 2.1296039104797712e-05 3.274266543570629e-05
 0.9555999018062281 -0.2884832566912106 0.006100958954203501 0.032363218715129295 3.3038847176185104e-06 1.0990445698045182e-05 4.284494945529779e-06 1.0108999668932976e-05
 3.3038847176185104e-06 1.0990445698045182e-05 3.3038847176185104e-06 1.0990445698045182e-05 0.007724417764200543 0.03244271858382273 0.9329609882991114 -0.35442570658814454
 2.1222994645491747e-05 3.2792027430952916e-05 4.284494945529779e-06 1.0108999668932976e-05 0.9329609882991114 -0.35442570658814454 0.007724417764200543 0.03244271858382273
787489795.9183673 0.006178372139363011 0.03255194034929955 0.9550146526723489 -0.2902835350913781 3.342969607723655e-06 1.111010617694397e-05 2.1599334146858347e-05 3.2880384416379456e-05
 0.9550146526723489 -0.2902835350913781 0.006178372139363011 0.03255194034929955 3.342969607723655e-06 1.111010617694397e-05 4.339870225953232e-06 1.0228242692457584e-05
 3.342969607723655e-06 1.111010617694397e-05 3.342969607723655e-06 1.111010617694397e-05 0.007819134619076615 0.03261997732852938 0.9320807229387157 -0.35659882824984734
 2.152506716440878e-05 3.2929159899501845e-05 4.339870225953232e-06 1.0228242692457584e-05 0.9320807229387157 -0.35659882824984734 0.007819134619076615 0.03261997732852938
792571428.5714285 0.0062560938222897015 0.032740235475276436 0.9544262936834416 -0.2920820489844301 3.3831315901169065e-06 1.1230599776986522e-05 2.190402772804685e-05 3.301618782465176e-05
 0.9544262936834416 -0.2920820489844301 0.0062560938222897015 0.032740235475276436 3.3831315901169065e-06 1.1230599776986522e-05 4.396382901516492e-06 1.0348230972511604e-05
 3.3831315901169065e-06 1.1230599776986522e-05 3.3831315901169065e-06 1.1230599776986522e-05 0.007914153478958012 0.032796604515037214 0.9311958390754135 -0.35876897990650514
 2.182858777309506e-05 3.306436987881366e-05 4.396382901516492e-06 1.0348230972511604e-05 0.9311958390754135 -0.35876897990650514 0.007914153478958012 0.032796604515037214
797653061.2244897 0.006334120633426494 0.032928104539473424 0.9538348406359661 -0.2938788050003998 3.4243932936601825e-06 1.1351905820919695e-05 2.2210106721190386e-05 3.315008019111508e-05
 0.9538348406359661 -0.2938788050003998 0.006334120633426494 0.032928104539473424 3.4243932936601825e-06 1.1351905820919695e-05 4.454058845709994e-06 1.0468944553385077e-05
 3.4243932936601825e-06 1.1351905820919695e-05 3.4243932936601825e-06 1.1351905820919695e-05 0.008009469127356552 0.03297260102301959 0.9303063609223233 -0.36093616929134376
 2.2133542546173023e-05 3.319766195264104e-05 4.454058845709994e-06 1.0468944553385077e-05 0.9303063609223233 -0.36093616929134376 0.008009469127356552 0.03297260102301959
802734693.877551 0.006412449273397796 0.03311554801518777 0.9532403088915149 -0.29567380994040066 3.4667770000076525e-06 1.1474003384524644e-05 2.251755844517315e-05 3.3282066204714106e-05
 0.9532403088915149 -0.29567380994040066 0.006412449273397796 0.03311554801518777 3.4667770000076525e-06 1.1474003384524644e-05 4.5129234714120304e-06 1.0590363246760535e-05
 3.4667770000076525e-06 1.1474003384524644e-05 3.4667770000076525e-06 1.1474003384524644e-05 0.008105076436671922 0.033147967769905445 0.9294123120644977 -0.36310040438560054
 2.2439918015551705e-05 3.3329040862779474e-05 4.5129234714120304e-06 1.0590363246760535e-05 0.9294123120644977 -0.36310040438560054 0.008105076436671922 0.033147967769905445
807816326.5306122 0.00649107651248678 0.03330256640109286 0.9526427133793228 -0.2974670707662629 3.510304645190494e-06 1.1596871306498797e-05 2.2826370663064364e-05 3.341215070151941e-05
 0.9526427133793228 -0.2974670707662629 0.00649107651248678 0.03330256640109286 3.510304645190494e-06 1.1596871306498797e-05 4.573001732915895e-06 1.0712466639393144e-05
 3.510304645190494e-06 1.1596871306498797e-05 3.510304645190494e-06 1.1596871306498797e-05 0.008200970367522181 0.03332270570874378 0.9285137154626819 -0.36526169340320874
 2.2747701168462634e-05 3.345851149786019e-05 4.573001732915895e-06 1.0712466639393144e-05 0.9285137154626819 -0.36526169340320874 0.008200970367522181 0.03332270570874378
812897959.1836734 0.006569999190085876 0.03348916021976612 0.9520420685989116 -0.29925859459040594 3.55499782130886e-06 1.1720488198113239e-05 2.3136531580125272e-05 3.35403386537308e-05
 0.9520420685989116 -0.29925859459040594 0.006569999190085876 0.03348916021976612 3.55499782130886e-06 1.1720488198113239e-05 4.634318128097051e-06 1.0835234100608434e-05
 3.55499782130886e-06 1.1720488198113239e-05 3.55499782130886e-06 1.1720488198113239e-05 0.008297145968042291 0.03349681582611706 0.9276105934572618 -0.3674200447758251
 2.3056879445369204e-05 3.358607888237287e-05 4.634318128097051e-06 1.0835234100608434e-05 0.9276105934572618 -0.3674200447758251 0.008297145968042291 0.03349681582611706
817979591.8367347 0.006649214214129449 0.03367533001624524 0.9514383886228542 -0.30104838866593364 3.6008777783234643e-06 1.1844832452649521e-05 2.3448029841701382e-05 3.366663515890581e-05
 0.9514383886228542 -0.30104838866593364 0.006649214214129449 0.03367533001624524 3.6008777783234643e-06 1.1844832452649521e-05 4.696896700710512e-06 1.095864478962051e-05
 3.6008777783234643e-06 1.1844832452649521e-05 3.6008777783234643e-06 1.1844832452649521e-05 0.008393598373155809 0.033670299140100675 0.9267029677723981 -0.36957546713819656
 2.3367440737755802e-05 3.371174816591297e-05 4.696896700710512e-06 1.095864478962051e-05 0.9267029677723981 -0.36957546713819656 0.008393598373155809 0.033670299140100675
823061224.4897959 0.006728718560502617 0.03386107635662039 0.9508316870996636 -0.3028364603769592 3.6479654259399197e-06 1.1969882254620063e-05 2.376085453100695e-05 3.379104542940842e-05
 0.9508316870996636 -0.3028364603769592 0.006728718560502617 0.03386107635662039 3.6479654259399197e-06 1.1969882254620063e-05 4.760761042809422e-06 1.108267766267395e-05
 3.6479654259399197e-06 1.1969882254620063e-05 3.6479654259399197e-06 1.1969882254620063e-05 0.008490322803820095 0.033843156698270094 0.9257908595203316 -0.37172796931385593
 2.3679373385804824e-05 3.383552461264901e-05 4.760761042809422e-06 1.108267766267395e-05 0.9257908595203316 -0.37172796931385593 0.008490322803820095 0.033843156698270094
828142857.1428571 0.006808509272432182 0.03404639982665399 0.9502219772567829 -0.3046228172291426 3.696281335579055e-06 1.209561558877624e-05 2.4074995166808196e-05 3.391357478207271e-05
 0.9502219772567829 -0.3046228172291426 0.006808509272432182 0.03404639982665399 3.696281335579055e-06 1.209561558877624e-05 4.825934297276076e-06 1.1207311480012335e-05
 3.696281335579055e-06 1.209561558877624e-05 3.696281335579055e-06 1.209561558877624e-05 0.008587314566244052 0.034015389575750406 0.9248742892058487 -0.37387756030114117
 2.399266617596772e-05 3.395741359100442e-05 4.825934297276076e-06 1.1207311480012335e-05 0.9248742892058487 -0.37387756030114117 0.008587314566244052 0.034015389575750406
833224489.7959183 0.006888583459858848 0.03423130103043401 0.9496092719036875 -0.30640746684044595 3.74584574242681e-06 1.2222010248908258e-05 2.4390441701011198e-05 3.403422862807702e-05
 0.9496092719036875 -0.30640746684044595 0.006888583459858848 0.03423130103043401 3.74584574242681e-06 1.2222010248908258e-05 4.892439160457144e-06 1.1332524812676616e-05
 3.74584574242681e-06 1.2222010248908258e-05 3.74584574242681e-06 1.2222010248908258e-05 0.008684569051084034 0.0341869988733138 0.9239532767309064 -0.37602424925953754
 2.430730833843676e-05 3.4077420563549256e-05 4.892439160457144e-06 1.1332524812676616e-05 0.9239532767309064 -0.37602424925953754 0.008684569051084034 0.0341869988733138
838306122.4489795 0.006968938298792177 0.03441578058905476 0.9489935834350794 -0.30819041693209903 3.7966785475576795e-06 1.2349043846440762e-05 2.4707184516160305e-05 3.415301246302293e-05
 0.9489935834350794 -0.30819041693209903 0.006968938298792177 0.03441578058905476 3.7966785475576795e-06 1.2349043846440762e-05 4.960297884895111e-06 1.1458296049136186e-05
 3.7966785475576795e-06 1.2349043846440762e-05 3.7966785475576795e-06 1.2349043846440762e-05 0.008782081732615297 0.034357985715519325 0.9230278413993903 -0.37816804549632305
 2.4623289544523944e-05 3.419555107709686e-05 4.960297884895111e-06 1.1458296049136186e-05 0.9230278413993903 -0.37816804549632305 0.008782081732615297 0.034357985715519325
843387755.1020408 0.0070495710306487614 0.034599839139329576 0.9483749238341762 -0.30997167531976755 3.848799320125745e-06 1.2476693818828408e-05 2.50252144228527e-05 3.426993185721503e-05
 0.9483749238341762 -0.30997167531976755 0.0070495710306487614 0.034599839139329576 3.848799320125745e-06 1.2476693818828408e-05 5.029532282148469e-06 1.1584603401755913e-05
 3.848799320125745e-06 1.2476693818828408e-05 3.848799320125745e-06 1.2476693818828408e-05 0.008879848167883802 0.034528351248895695 0.9220980019220192 -0.3803089584535275
 2.4940599903952372e-05 3.43118107530005e-05 5.029532282148469e-06 1.1584603401755913e-05 0.9220980019220192 -0.3803089584535275 0.008879848167883802 0.034528351248895695
848469387.755102 0.007130478961576636 0.034783477332528664 0.9477533046760837 -0.3117512499049255 3.9022272996178755e-06 1.2604937437755199e-05 2.5344522657074196e-05 3.4384992446135846e-05
 0.9477533046760837 -0.3117512499049255 0.007130478961576636 0.034783477332528664 3.9022272996178755e-06 1.2604937437755199e-05 5.100163725693408e-06 1.1711424913101985e-05
 3.9022272996178755e-06 1.2604937437755199e-05 3.9022272996178755e-06 1.2604937437755199e-05 0.008977863995835363 0.03469809664016595 0.9211637764213693 -0.38244699769518464
 2.525922996206618e-05 3.442620527764537e-05 5.100163725693408e-06 1.1711424913101985e-05 0.9211637764213693 -0.38244699769518464 0.008977863995835363 0.03469809664016595
853551020.4081632 0.007211659461760764 0.034966695833150895 0.9471287371312535 -0.31352914866642523 3.956981398163693e-06 1.2733751817141835e-05 2.5665100877461572e-05 3.4498199921111845e-05
 0.9471287371312535 -0.31352914866642523 0.007211659461760764 0.034966695833150895 3.956981398163693e-06 1.2733751817141835e-05 5.172213153900199e-06 1.1838738462089757e-05
 3.956981398163693e-06 1.2733751817141835e-05 3.956981398163693e-06 1.2733751817141835e-05 0.009076124936429071 0.034867223074516146 0.920225182437021 -0.3845821728948806
 2.5579170696964183e-05 3.453874039313105e-05 5.172213153900199e-06 1.1838738462089757e-05 0.920225182437021 -0.3845821728948806 0.009076124936429071 0.034867223074516146
858632653.0612245 0.00729310996472271 0.03514949531771685 0.9465012319690108 -0.3153053796522571 4.013080202897301e-06 1.286311392096474e-05 2.598694116249601e-05 3.460956002016534e-05
 0.9465012319690108 -0.3153053796522571 0.00729310996472271 0.03514949531771685 4.013080202897301e-06 1.286311392096474e-05 5.245701073077761e-06 1.1966521769976453e-05
 4.013080202897301e-06 1.286311392096474e-05 4.013080202897301e-06 1.286311392096474e-05 0.009174626789729775 0.035035731753901726 0.919282236930816 -0.38671449382358736
 2.5900413516562175e-05 3.464942188813967e-05 5.245701073077761e-06 1.1966521769976453e-05 0.919282236930816 -0.38671449382358736 0.009174626789729775 0.035035731753901726
863714285.7142856 0.007374827966598403 0.03533187647359448 0.945870799561157 -0.31707995097150193 4.070541978365876e-06 1.2993000570890966e-05 2.6310036007632084e-05 3.4719078519047584e-05
 0.945870799561157 -0.31707995097150193 0.007374827966598403 0.03533187647359448 4.070541978365876e-06 1.2993000570890966e-05 5.320647560580106e-06 1.2094752406201845e-05
 4.070541978365876e-06 1.2993000570890966e-05 4.070541978365876e-06 1.2993000570890966e-05 0.009273365434985761 0.035203623895395976 0.9183349562922182 -0.38884397033777673
 2.6222950255588827e-05 3.4758255588985355e-05 5.320647560580106e-06 1.2094752406201845e-05 0.9183349562922182 -0.38884397033777673 0.009273365434985761 0.035203623895395976
868795918.3673469 0.007456811025411304 0.03551383999784799 0.945237449885636 -0.318852870786466 4.129384668980625e-06 1.3123388453732654e-05 2.6634378322367184e-05 3.482676122244896e-05
 0.945237449885636 -0.318852870786466 0.007456811025411304 0.03551383999784799 4.129384668980625e-06 1.3123388453732654e-05 5.397072267968907e-06 1.2223407794079832e-05
 4.129384668980625e-06 1.3123388453732654e-05 4.129384668980625e-06 1.3123388453732654e-05 0.009372336829689923 0.035370900729577374 0.9173833563437759 -0.3909706123678113
 2.6546773172519833e-05 3.4865247350840174e-05 5.397072267968907e-06 1.2223407794079832e-05 0.9173833563437759 -0.3909706123678113 0.009372336829689923 0.035370900729577374
873877551.0204082 0.0075390567603291145 0.035695386596114896 0.9446011925302633 -0.32062414730499716 4.189625901505558e-06 1.3254254128725047e-05 2.6959961427254602e-05 3.493261395538107e-05
 0.9446011925302633 -0.32062414730499716 0.0075390567603291145 0.035695386596114896 4.189625901505558e-06 1.3254254128725047e-05 5.474994424226343e-06 1.2352465216343792e-05
 4.189625901505558e-06 1.3254254128725047e-05 4.189625901505558e-06 1.3254254128725047e-05 0.009471537008625986 0.03553756349895599 0.9164274523466702 -0.3930944299066011
 2.687187494645433e-05 3.4970403049131965e-05 5.474994424226343e-06 1.2352465216343792e-05 0.9164274523466702 -0.3930944299066011 0.009471537008625986 0.03553756349895599
878959183.6734693 0.007621562850914904 0.03587651698150695 0.9439620366965125 -0.3223937887729787 4.251282987580053e-06 1.3385574034631872e-05 2.7286779050865267e-05 3.503664255472664e-05
 0.9439620366965125 -0.3223937887729787 0.007621562850914904 0.03587651698150695 4.251282987580053e-06 1.3385574034631872e-05 5.554432839013057e-06 1.248190182054888e-05
 4.251282987580053e-06 1.3385574034631872e-05 4.251282987580053e-06 1.3385574034631872e-05 0.009570962082901638 0.035703613456436474 0.915467259006354 -0.3952154329985274
 2.7198248673938235e-05 3.5073728571109945e-05 5.554432839013057e-06 1.248190182054888e-05 0.915467259006354 -0.3952154329985274 0.009570962082901638 0.035703613456436474
884040816.3265306 0.007704327036363339 0.03605723187353754 0.9433199912033535 -0.3241618034669958 4.3143729262710725e-06 1.351732449668175e-05 2.7614825326700727e-05 3.5138852860952536e-05
 0.9433199912033535 -0.3241618034669958 0.007704327036363339 0.03605723187353754 4.3143729262710725e-06 1.351732449668175e-05 5.635405905965954e-06 1.2611694624333823e-05
 4.3143729262710725e-06 1.351732449668175e-05 4.3143729262710725e-06 1.351732449668175e-05 0.009670608238969175 0.035869051863820285 0.914502790478265 -0.39733363172861996
 2.7525887865737892e-05 3.51752298075732e-05 5.635405905965954e-06 1.2611694624333823e-05 0.914502790478265 -0.39733363172861996 0.009670608238969175 0.035869051863820285
889122448.9795917 0.00778734711473135 0.03623753199707378 0.9426750644911434 -0.32592819968717085 4.378912406651276e-06 1.3649481733339598e-05 2.7944094790061775e-05 3.5239250709981874e-05
 0.9426750644911434 -0.32592819968717085 0.00778734711473135 0.03623753199707378 4.378912406651276e-06 1.3649481733339598e-05 5.7179316060310366e-06 1.274182052054551e-05
 4.378912406651276e-06 1.3649481733339598e-05 4.378912406651276e-06 1.3649481733339598e-05 0.009770471737631 0.036033879990343284 0.9135340603736154 -0.39944903621198896
 2.785478644356802e-05 3.527491264475811e-05 5.7179316060310366e-06 1.274182052054551e-05 0.9135340603736154 -0.39944903621198896 0.009770471737631 0.036033879990343284
894204081.632653 0.007870620942159328 0.03641741808131086 0.9420272646255589 -0.3276929857501648 4.444917810399444e-06 1.3782021862916474e-05 2.8274582374875792e-05 3.5337841925220456e-05
 0.9420272646255589 -0.3276929857501648 0.007870620942159328 0.03641741808131086 4.444917810399444e-06 1.3782021862916474e-05 5.802027510826731e-06 1.2872256282228888e-05
 4.444917810399444e-06 1.3782021862916474e-05 4.444917810399444e-06 1.3782021862916474e-05 0.009870548913039488 0.036198099111249195 0.9125610817652503 -0.401561656583503
 2.8184938736777578e-05 3.537278295638003e-05 5.802027510826731e-06 1.2872256282228888e-05 0.9125610817652503 -0.401561656583503 0.009870548913039488 0.036198099111249195
899285714.2857143 0.00795414643208365 0.03659689085877148 0.9413765993015751 -0.3294561699823396 4.512405214419612e-06 1.3914920910021759e-05 2.8606283410485672e-05 3.543463230973356e-05
 0.9413765993015751 -0.3294561699823396 0.00795414643208365 0.03659689085877148 4.512405214419612e-06 1.3914920910021759e-05 5.887710786033083e-06 1.3002978567485206e-05
 4.512405214419612e-06 1.3914920910021759e-05 4.512405214419612e-06 1.3914920910021759e-05 0.009970836171680826 0.036361710506398255 0.911583867193567 -0.4036715029877063
 2.8516339478996647e-05 3.5468846595825304e-05 5.887710786033083e-06 1.3002978567485206e-05 0.911583867193567 -0.4036715029877063 0.009970836171680826 0.036361710506398255
904367346.9387754 0.00803792155444318 0.0367759510643285 0.9407230758474808 -0.3312177607130797 4.581390393475732e-06 1.4048154811861205e-05 2.893919361840378e-05 3.5529627638568774e-05
 0.9407230758474808 -0.3312177607130797 0.00803792155444318 0.0367759510643285 4.581390393475732e-06 1.4048154811861205e-05 5.974998194802851e-06 1.31339639242014e-05
 4.581390393475732e-06 1.4048154811861205e-05 4.581390393475732e-06 1.4048154811861205e-05 0.010071329991352993 0.036524715458911165 0.9106024286724933 -0.4057785855689744
 2.8848983804747556e-05 3.556310938848938e-05 5.974998194802851e-06 1.31339639242014e-05 0.9106024286724933 -0.4057785855689744 0.010071329991352993 0.036524715458911165
909448979.5918367 0.008121944334877855 0.03695459943424956 0.9400667012289314 -0.3329777662682668 4.651888822838637e-06 1.4181699424384404e-05 2.9273309109033728e-05 3.562283365122093e-05
 0.9400667012289314 -0.3329777662682668 0.008121944334877855 0.03695459943424956 4.651888822838637e-06 1.4181699424384404e-05 6.063906101190398e-06 1.326518879465339e-05
 4.651888822838637e-06 1.4181699424384404e-05 4.651888822838637e-06 1.4181699424384404e-05 0.010172026920134306 0.03668711525384648 0.9096167776955232 -0.40788291446189784
 2.9182867246023465e-05 3.565557712425658e-05 6.063906101190398e-06 1.326518879465339e-05 0.9096167776955232 -0.40788291446189784 0.010172026920134306 0.03668711525384648
914530612.2448978 0.008206212853921565 0.03713283670526353 0.9394074820530314 -0.3347361949639061 4.723915680942338e-06 1.4315530528285273e-05 2.960862637836222e-05 3.571425604423461e-05
 0.9394074820530314 -0.3347361949639061 0.008206212853921565 0.03713283670526353 4.723915680942338e-06 1.4315530528285273e-05 6.154450473594577e-06 1.3396629519985956e-05
 4.723915680942338e-06 1.4315530528285273e-05 4.723915680942338e-06 1.4315530528285273e-05 0.010272923575340041 0.03684891117691033 0.9086269252417939 -0.40998449978189205
 2.9517985728836855e-05 3.5746255550117905e-05 6.154450473594577e-06 1.3396629519985956e-05 0.9086269252417939 -0.40998449978189205 0.010272923575340041 0.03684891117691033
919612244.8979591 0.008290725246189939 0.03731066361364893 0.9387454245724537 -0.3364930550999018 4.797485852046778e-06 1.444962383485912e-05 2.9945142304624148e-05 3.580390046394083e-05
 0.9387454245724537 -0.3364930550999018 0.008290725246189939 0.03731066361364893 4.797485852046778e-06 1.444962383485912e-05 6.246646888212061e-06 1.3528262344572193e-05
 4.797485852046778e-06 1.444962383485912e-05 4.797485852046778e-06 1.444962383485912e-05 0.010374016642479297 0.03701010451320048 0.9076328817822182 -0.41208335161602855
 2.9854335569740956e-05 3.583515036292275e-05 6.246646888212061e-06 1.3528262344572193e-05 0.9076328817822182 -0.41208335161602855 0.010374016642479297 0.03701010451320048
924693877.5510204 0.008375479699561995 0.03748808089434515 0.9380805346895781 -0.33824835495397243 4.872613928904282e-06 1.4583954991719573e-05 3.0282854144942877e-05 3.5891772499323284e-05
 0.9380805346895781 -0.33824835495397243 0.008375479699561995 0.03748808089434515 4.872613928904282e-06 1.4583954991719573e-05 6.340510532497625e-06 1.3660063420254928e-05
 4.872613928904282e-06 1.4583954991719573e-05 4.872613928904282e-06 1.4583954991719573e-05 0.010475302874195555 0.037170696545980764 0.9066346572856492 -0.4141794800140778
 3.0191913472326446e-05 3.592226720226025e-05 6.340510532497625e-06 1.3660063420254928e-05 0.9066346572856492 -0.4141794800140778 0.010475302874195555 0.037170696545980764
929775510.2040815 0.008460474454356522 0.03766508928008047 0.9374128179606616 -0.34000210277571175 4.9493142154271475e-06 1.4718499588379004e-05 3.0621759531948136e-05 3.5977877675010866e-05
 0.9374128179606616 -0.34000210277571175 0.008460474454356522 0.03766508928008047 4.9493142154271475e-06 1.4718499588379004e-05 6.4360562086282025e-06 1.3792008810473075e-05
 4.9493142154271475e-06 1.4718499588379004e-05 4.9493142154271475e-06 1.4718499588379004e-05 0.010576779089209938 0.03733068855548769 0.9056322612250887 -0.4162728949797677
 3.0530716523695656e-05 3.6007611643466916e-05 6.4360562086282025e-06 1.3792008810473075e-05 0.9056322612250887 -0.4162728949797677 0.010576779089209938 0.03733068855548769
934857142.8571428 0.00854570780250569 0.0378416895005243 0.9367422796000249 -0.34175430678078483 5.027600729353896e-06 1.4853233161695671e-05 3.096185647037381e-05 3.60622214443922e-05
 0.9367422796000249 -0.34175430678078483 0.00854570780250569 0.0378416895005243 5.027600729353896e-06 1.4853233161695671e-05 6.533298336967518e-06 1.392407449427546e-05
 5.027600729353896e-06 1.4853233161695671e-05 5.027600729353896e-06 1.4853233161695671e-05 0.01067844217125083 0.03749008181776777 0.9046257025839276 -0.41836360646224324
 3.0870742190916955e-05 3.609118919075625e-05 6.533298336967518e-06 1.392407449427546e-05 0.9046257025839276 -0.41836360646224324 0.01067844217125083 0.03749008181776777
939938775.5102041 0.008631178086724856 0.03801788228145856 0.9360689244842653 -0.3435049751452574 5.107487204911778e-06 1.4988131201191024e-05 3.130314333363731e-05 3.614480918284849e-05
 0.9360689244842653 -0.3435049751452574 0.008631178086724856 0.03801788228145856 5.107487204911778e-06 1.4988131201191024e-05 6.632250959528482e-06 1.4056236370224696e-05
 5.107487204911778e-06 1.4988131201191024e-05 5.107487204911778e-06 1.4988131201191024e-05 0.010780289067985031 0.03764887760354452 0.9036149898622143 -0.42045162434772854
 3.121198831746103e-05 3.617300527046708e-05 6.632250959528482e-06 1.4056236370224696e-05 0.9036149898622143 -0.42045162434772854 0.010780289067985031 0.03764887760354452
945020408.1632652 0.008716883699676109 0.038193668343965426 0.9353927571564837 -0.3452541160000592 5.1889870954733e-06 1.5123169154240391e-05 3.1645618860402586e-05 3.622564618110115e-05
 0.9353927571564837 -0.3452541160000592 0.008716883699676109 0.038193668343965426 5.1889870954733e-06 1.5123169154240391e-05 6.732927743430379e-06 1.4188470260193838e-05
 5.1889870954733e-06 1.5123169154240391e-05 5.1889870954733e-06 1.5123169154240391e-05 0.010882316789939747 0.03780707717711567 0.9026001310829561 -0.42253695845138584
 3.155445311962097e-05 3.625306522442628e-05 6.732927743430379e-06 1.4188470260193838e-05 0.9026001310829561 -0.42253695845138584 0.010882316789939747 0.03780707717711567
950102040.8163265 0.008802823083131564 0.038369048403638875 0.9347137818305272 -0.34700173742557183 5.272113576204697e-06 1.5258322431140332e-05 3.1989282151128716e-05 3.6304737638670404e-05
 0.9347137818305272 -0.34700173742557183 0.008802823083131564 0.038369048403638875 5.272113576204697e-06 1.5258322431140332e-05 6.835341984348441e-06 1.4320751913058389e-05
 5.272113576204697e-06 1.5258322431140332e-05 5.272113576204697e-06 1.5258322431140332e-05 0.010984522409422649 0.03796468179527942 0.9015811337984406 -0.424619618509364
 3.18981351829185e-05 3.633137430342286e-05 6.835341984348441e-06 1.4320751913058389e-05 0.9015811337984406 -0.424619618509364 0.010984522409422649 0.03796468179527942
955183673.4693877 0.008888994727133443 0.03854402316980995 0.9340320023952484 -0.34874784744634557 5.356879546704221e-06 1.539356641005592e-05 3.2334132664605456e-05 3.6382088657441094e-05
 0.9340320023952484 -0.34874784744634557 0.008888994727133443 0.03854402316980995 5.356879546704221e-06 1.539356641005592e-05 6.939506609953075e-06 1.4453057008286077e-05
 5.356879546704221e-06 1.539356641005592e-05 5.356879546704221e-06 1.539356641005592e-05 0.011086903059438057 0.03812169270628676 0.9005580050965801 -0.4266996141710379
 3.2243033458497545e-05 3.640793766078927e-05 6.939506609953075e-06 1.4453057008286077e-05 0.9005580050965801 -0.4266996141710379 0.011086903059438057 0.03812169270628676
960265306.1224489 0.008975397169149878 0.03871859334479458 0.9333474224187748 -0.35049245402593454 5.443297633628315e-06 1.5528876441851055e-05 3.2680170214477264e-05 3.645770423533264e-05
 0.9333474224187748 -0.35049245402593454 0.008975397169149878 0.03871859334479458 5.443297633628315e-06 1.5528876441851055e-05 7.045434183336436e-06 1.4585361159427143e-05
 5.443297633628315e-06 1.5528876441851055e-05 5.443297633628315e-06 1.5528876441851055e-05 0.011189455932598673 0.03827811114882551 0.8995307516072766 -0.4287769549914267
 3.258914725950695e-05 3.6482760346087e-05 7.045434183336436e-06 1.4585361159427143e-05 0.8995307516072766 -0.4287769549914267 0.011189455932598673 0.03827811114882551
965346938.7755102 0.009062028993231172 0.03889275962315639 0.9326600451527887 -0.3522355650618531 5.531380193303933e-06 1.566422785480495e-05 3.3027394965757603e-05 3.653158926006892e-05
 0.9326600451527887 -0.3522355650618531 0.009062028993231172 0.03889275962315639 5.531380193303933e-06 1.566422785480495e-05 7.153136906424197e-06 1.4717639917507416e-05
 5.531380193303933e-06 1.566422785480495e-05 5.531380193303933e-06 1.566422785480495e-05 0.011292178280036619 0.03843393835102932 0.898499379508799 -0.4308516504237917
 3.293647625747409e-05 3.655584729889228e-05 7.153136906424197e-06 1.4717639917507416e-05 0.898499379508799 -0.4308516504237917 0.011292178280036619 0.03843393835102932
970428571.4285713 0.009148888829162686 0.0390665226909872 0.9319698735368174 -0.3539771883806476 5.621139314325099e-06 1.5799595959217965e-05 3.337580743133451e-05 3.660374850304549e-05
 0.9319698735368174 -0.3539771883806476 0.009148888829162686 0.0390665226909872 5.621139314325099e-06 1.5799595959217965e-05 7.2626266233701714e-06 1.484986877432692e-05
 5.621139314325099e-06 1.5799595959217965e-05 5.621139314325099e-06 1.5799595959217965e-05 0.011395067410311233 0.03858917552951338 0.8974638945341813 -0.4329237098124123
 3.3285020478670237e-05 3.6627203342679067e-05 7.2626266233701714e-06 1.484986877432692e-05 0.8974638945341813 -0.4329237098124123 0.011395067410311233 0.03858917552951338
975510204.0816326 0.009235975351615407 0.039239883225206634 0.9312769102025288 -0.35571733173308223 5.7125868201321534e-06 1.593495605190974e-05 3.372540846846873e-05 3.6674186613289906e-05
 0.9312769102025288 -0.35571733173308223 0.009235975351615407 0.039239883225206634 5.7125868201321534e-06 1.593495605190974e-05 7.373914823931933e-06 1.4982023165666163e-05
 5.7125868201321534e-06 1.593495605190974e-05 5.7125868201321534e-06 1.593495605190974e-05 0.011498120688313749 0.03874382388843615 0.8964243019776243 -0.4349931423855259
 3.363478030046944e-05 3.669683317879563e-05 7.373914823931933e-06 1.4982023165666163e-05 0.8964243019776243 -0.4349931423855259 0.011498120688313749 0.03874382388843615
980591836.7346938 0.009323287279298813 0.03941284189287504 0.9305811574780332 -0.35745600278943407 5.805734271572044e-06 1.607028342061269e-05 3.407619927528572e-05 3.674290811151254e-05
 0.9305811574780332 -0.35745600278943407 0.009323287279298813 0.03941284189287504 5.805734271572044e-06 1.607028342061269e-05 7.4870126468254785e-06 1.5114078474402859e-05
 5.805734271572044e-06 1.607028342061269e-05 5.805734271572044e-06 1.607028342061269e-05 0.011601335534172424 0.03889788461858961 0.8953806067009139 -0.4370599572484397
 3.398575644770202e-05 3.676474138053141e-05 7.4870126468254785e-06 1.5114078474402859e-05 0.8953806067009139 -0.4370599572484397 0.011601335534172424 0.03889788461858961
985673469.387755 0.009410823374108339 0.039585399350525664 0.9298826173921932 -0.3591932091348998 5.900592969438156e-06 1.6205553348263896e-05 3.4428181387262405e-05 3.6809917384244016e-05
 0.9298826173921932 -0.3591932091348998 0.009410823374108339 0.039585399350525664 5.900592969438156e-06 1.6205553348263896e-05 7.601930883057044e-06 1.5246010033541163e-05
 5.900592969438156e-06 1.6205553348263896e-05 5.900592969438156e-06 1.6205553348263896e-05 0.011704709422155823 0.03905135889650956 0.8943328131398434 -0.4391241633768017
 3.4337949989003485e-05 3.6830932387271074e-05 7.601930883057044e-06 1.5246010033541163e-05 0.8943328131398434 -0.4391241633768017 0.011704709422155823 0.03905135889650956
990755102.0408163 0.00949858244027517 0.039757556243511856 0.9291812916789305 -0.36092895826510096 5.997173956988254e-06 1.6340741117198213e-05 3.4781356673709696e-05 3.687521867805661e-05
 0.9291812916789305 -0.36092895826510096 0.00949858244027517 0.039757556243511856 5.997173956988254e-06 1.6340741117198213e-05 7.718679979230467e-06 1.537779312915612e-05
 5.997173956988254e-06 1.6340741117198213e-05 5.997173956988254e-06 1.6340741117198213e-05 0.011808239879574155 0.03920424788361641 0.8932809253106428 -0.44118576961003075
 3.469136233316025e-05 3.68954104987324e-05 7.718679979230467e-06 1.537779312915612e-05 0.8932809253106428 -0.44118576961003075 0.011808239879574155 0.03920424788361641
995836734.6938775 0.009586563323514322 0.039929313205367516 0.9284771817815388 -0.36266325758170004 6.095488022439195e-06 1.6475822013245518e-05 3.5135727334251605e-05 3.693881609386576e-05
 0.9284771817815388 -0.36266325758170004 0.009586563323514322 0.039929313205367516 6.095488022439195e-06 1.6475822013245518e-05 7.837270040828386e-06 1.5509403003255343e-05
 6.095488022439195e-06 1.6475822013245518e-05 6.095488022439195e-06 1.6475822013245518e-05 0.01191192448568178 0.03935655272537488 0.8922249468164123 -0.4432447846449013
 3.5045995225452783e-05 3.695817986928471e-05 7.837270040828386e-06 1.5509403003255343e-05 0.8922249468164123 -0.4432447846449013 0.01191192448568178 0.03935655272537488
1000918367.3469387 0.009674764910173952 0.04010067085718838 0.9277702888569987 -0.3643961143881095 6.1955457014371045e-06 1.6610771329735125e-05 3.549129589530208e-05 3.700071358130931e-05
 0.9277702888569987 -0.3643961143881095 0.009674764910173952 0.04010067085718838 6.1955457014371045e-06 1.6610771329735125e-05 7.957710835465919e-06 1.564081485656062e-05
 6.1955457014371045e-06 1.6610771329735125e-05 6.1955457014371045e-06 1.6610771329735125e-05 0.012015760870578021 0.03950827455048244 0.8911648808535569 -0.44530121702927955
 3.5401850743997224e-05 3.701924450234511e-05 7.957710835465919e-06 1.564081485656062e-05 0.8911648808535569 -0.44530121702927955 0.012015760870578021 0.03950827455048244
1005999999.9999999 0.009763186126382023 0.040271629807021224 0.9270606137802888 -0.36612753588530417 6.297357279501771e-06 1.6745564371409974e-05 3.5848065206539576e-05 3.7060914933200736e-05
 0.9270606137802888 -0.36612753588530417 0.009763186126382023 0.040271629807021224 6.297357279501771e-06 1.6745564371409974e-05 8.0800117961151e-06 1.577200385121143e-05
 6.297357279501771e-06 1.6745564371409974e-05 6.297357279501771e-06 1.6745564371409974e-05 0.012119746714109066 0.03965941447007581 0.8901007302182267 -0.4473550751560078
 3.575893129608598e-05 3.707860824484901e-05 8.0800117961151e-06 1.577200385121143e-05 0.8901007302182267 -0.4473550751560078 0.012119746714109066 0.03965941447007581
1011081632.6530612 0.00985182593719513 0.040442190649272174 0.9263481571486991 -0.3678575291677257 6.400932794444124e-06 1.6880176458253463e-05 3.620603843738066e-05 3.711942378005376e-05
 0.9263481571486991 -0.3678575291677257 0.00985182593719513 0.040442190649272174 6.400932794444124e-06 1.6880176458253463e-05 8.204182024299011e-06 1.590294511339283e-05
 6.400932794444124e-06 1.6880176458253463e-05 6.400932794444124e-06 1.6880176458253463e-05 0.012223879744769921 0.03980997357696482 0.889032497312748 -0.4494063672569278
 3.6117239614528184e-05 3.7136274781792316e-05 8.204182024299011e-06 1.590294511339283e-05 0.889032497312748 -0.4494063672569278 0.012223879744769921 0.03980997357696482
1016163265.3061224 0.009940683345747667 0.04061235396412985 0.9256329192861412 -0.36958610121928026 6.5062820387556975e-06 1.7014582929231754e-05 3.656521907345298e-05 3.717624358467518e-05
 0.9256329192861412 -0.36958610121928026 0.009940683345747667 0.04061235396412985 6.5062820387556975e-06 1.7014582929231754e-05 8.330230293254198e-06 1.6033613735889957e-05
 6.5062820387556975e-06 1.7014582929231754e-05 6.5062820387556975e-06 1.7014582929231754e-05 0.012328157738605953 0.03995995294488669 0.8879601841520636 -0.45145510139705225
 3.647677875399043e-05 3.719224763084197e-05 8.330230293254198e-06 1.6033613735889957e-05 0.8879601841520636 -0.45145510139705225 0.012328157738605953 0.03995995294488669
1021244897.9591836 0.01002975739240098 0.04078212031699793 0.9249149002474555 -0.37131325890942785 6.613414561969012e-06 1.7148759145954187e-05 3.69256109130679e-05 3.723137763682293e-05
 0.9249149002474555 -0.37131325890942785 0.01002975739240098 0.04078212031699793 6.613414561969012e-06 1.7148759145954187e-05 8.458165051060156e-06 1.6163984780571303e-05
 6.613414561969012e-06 1.7148759145954187e-05 6.613414561969012e-06 1.7148759145954187e-05 0.012432578518117295 0.040109353627780946 0.8868837923701597 -0.4535012854688655
 3.683755208733838e-05 3.724653013701221e-05 8.458165051060156e-06 1.6163984780571303e-05 0.8868837923701597 -0.4535012854688655 0.012432578518117295 0.040109353627780946
1026326530.6122448 0.010119047153892335 0.04095149025794587 0.9241940998227172 -0.37303900898935993 6.722339672987919e-06 1.7282680496254457e-05 3.728721806369353e-05 3.7284829047926776e-05
 0.9241940998227172 -0.37303900898935993 0.010119047153892335 0.04095149025794587 6.722339672987919e-06 1.7282680496254457e-05 8.58799442373485e-06 1.6294033280803095e-05
 6.722339672987919e-06 1.7282680496254457e-05 6.722339672987919e-06 1.7282680496254457e-05 0.012537139951162408 0.040258176659088 0.8858033232264988 -0.45554492718676354
 3.719956330197959e-05 3.72991254674033e-05 8.58799442373485e-06 1.6294033280803095e-05 0.8858033232264988 -0.45554492718676354 0.012537139951162408 0.040258176659088
1031408163.265306 0.010208551742486917 0.041120464321170974 0.9234705175415329 -0.3747633580882618 6.833066442386921e-06 1.741632239769536e-05 3.7650044938428196e-05 3.733660074586833e-05
 0.9234705175415329 -0.3747633580882618 0.010208551742486917 0.041120464321170974 6.833066442386921e-06 1.741632239769536e-05 8.719726218295136e-06 1.6423734243796885e-05
 6.833066442386921e-06 1.741632239769536e-05 6.833066442386921e-06 1.741632239769536e-05 0.012641839949864057 0.04040642305106783 0.8847187776124376 -0.45758603408162046
 3.756281639620804e-05 3.735003660600049e-05 8.719726218295136e-06 1.6423734243796885e-05 0.8847187776124376 -0.45758603408162046 0.012641839949864057 0.04040642305106783
1036489795.9183673 0.010298270305129286 0.041289043024472984 0.9227441526773411 -0.37648631270966065 6.945603704678677e-06 1.7549660300999466e-05 3.801409625247485e-05 3.7386695469817977e-05
 0.9227441526773411 -0.37648631270966065 0.010298270305129286 0.041289043024472984 6.945603704678677e-06 1.7549660300999466e-05 8.853367925781174e-06 1.6553062652892533e-05
 6.945603704678677e-06 1.7549660300999466e-05 6.945603704678677e-06 1.7549660300999466e-05 0.01274667646951544 0.040554093794139975 0.8836301560576479 -0.45962461349548417
 3.792731567555048e-05 3.739926634852962e-05 8.853367925781174e-06 1.6553062652892533e-05 0.8836301560576479 -0.45962461349548417 0.01274667646951544 0.040554093794139975
1041571428.5714285 0.010388202022595544 0.041457226868743056 0.9220150042516984 -0.3782078792278539 7.059960060548751e-06 1.7682669693408602e-05 3.837937701961652e-05 3.743511576512581e-05
 0.9220150042516984 -0.3782078792278539 0.010388202022595544 0.041457226868743056 7.059960060548751e-06 1.7682669693408602e-05 8.988926724243882e-06 1.668199346977878e-05
 7.059960060548751e-06 1.7682669693408602e-05 7.059960060548751e-06 1.7682669693408602e-05 0.012851647507489627 0.04070118985624164 0.8825374587365252 -0.46166067257639626
 3.829306574911493e-05 3.7446817297367296e-05 8.988926724243882e-06 1.668199346977878e-05 0.8825374587365252 -0.46166067257639626 0.012851647507489627 0.04070118985624164
1046653061.2244897 0.010478346108648784 0.041625016337463044 0.9212830710385657 -0.37992806388441736 7.176143879056896e-06 1.78153261019744e-05 3.874589254869288e-05 3.748186397826368e-05
 0.9212830710385657 -0.37992806388441736 0.010478346108648784 0.041625016337463044 7.176143879056896e-06 1.78153261019744e-05 9.126409481694543e-06 1.6810501636653437e-05
 7.176143879056896e-06 1.78153261019744e-05 7.176143879056896e-06 1.78153261019744e-05 0.012956751102150504 0.0408477121822082 0.8814406854745908 -0.46369421827332985
 3.8660071525941446e-05 3.7492691856502575e-05 9.126409481694543e-06 1.6810501636653437e-05 0.8814406854745908 -0.46369421827332985 0.012956751102150504 0.0408477121822082
1051734693.877551 0.010568701809192699 0.04179241189621976 0.9205483515685876 -0.3816468727847941 7.294163299804103e-06 1.7947605096782738e-05 3.911364844007821e-05 3.752694225181615e-05
 0.9205483515685876 -0.3816468727847941 0.010568701809192699 0.04179241189621976 7.294163299804103e-06 1.7947605096782738e-05 9.265822759015838e-06 1.6938562078325543e-05
 7.294163299804103e-06 1.7947605096782738e-05 7.294163299804103e-06 1.7947605096782738e-05 0.013061985331763355 0.04099366169317259 0.8803398357548886 -0.4657252573312513
 3.9028338211355325e-05 3.753689222654763e-05 9.265822759015838e-06 1.6938562078325543e-05 0.8803398357548886 -0.4657252573312513 0.013061985331763355 0.04099366169317259
1056816326.5306122 0.01065926840143143 0.04195941399222757 0.9198108441333624 -0.38336431189495396 7.414026235064739e-06 1.8079482294114193e-05 3.948265058216065e-05 3.757035251951713e-05
 0.9198108441333624 -0.38336431189495396 0.01065926840143143 0.04195941399222757 7.414026235064739e-06 1.8079482294114193e-05 9.407172812833591e-06 1.7066149704261214e-05
 7.414026235064739e-06 1.8079482294114193e-05 7.414026235064739e-06 1.8079482294114193e-05 0.013167348313411374 0.04113903928598194 0.8792349087243687 -0.4677537962862907
 3.939787130332253e-05 3.757942039979469e-05 9.407172812833591e-06 1.7066149704261214e-05 0.8792349087243687 -0.4677537962862907 0.013167348313411374 0.04113903928598194
1061897959.1836734 0.010750045193025205 0.04212602305386609 0.919070546789709 -0.3850803870381312 7.535740371883077e-06 1.8210933359543317e-05 3.9852905147822556e-05 3.761209650133001e-05
 0.919070546789709 -0.3850803870381312 0.010750045193025205 0.04212602305386609 7.535740371883077e-06 1.8210933359543317e-05 9.550465598348382e-06 1.7193239410575555e-05
 7.535740371883077e-06 1.8210933359543317e-05 7.535740371883077e-06 1.8210933359543317e-05 0.013272838201911526 0.04128384583263532 0.878125903200265 -0.4697798414610287
 3.9768676588807674e-05 3.762027815531657e-05 9.550465598348382e-06 1.7193239410575555e-05 0.878125903200265 -0.4697798414610287 0.013272838201911526 0.04128384583263532
1066979591.8367347 0.010841031521252164 0.0422922394902268 0.9183274573639234 -0.38679510389163235 7.659313174133611e-06 1.83419340109789e-05 4.022441859092223e-05 3.765217569856862e-05
 0.9183274573639234 -0.38679510389163235 0.010841031521252164 0.0422922394902268 7.659313174133611e-06 1.83419340109789e-05 9.69570677212662e-06 1.7319806081972623e-05
 7.659313174133611e-06 1.83419340109789e-05 7.659313174133611e-06 1.83419340109789e-05 0.013378453188734003 0.04142808217973808 0.8770128176764619 -0.4718033989598928
 4.014076014013398e-05 3.765946705410867e-05 9.69570677212662e-06 1.7319806081972623e-05 0.8770128176764619 -0.4718033989598928 0.013378453188734003 0.04142808217973808
1072061224.4897958 0.010932226752170373 0.04245806369067248 0.9175815734560286 -0.3885084679837131 7.78475188454467e-06 1.8472460021647733e-05 4.0597197642776586e-05 3.7690591389056426e-05
 0.9175815734560286 -0.3885084679837131 0.010932226752170373 0.04245806369067248 7.78475188454467e-06 1.8472460021647733e-05 9.842901694850384e-06 1.7445824593635323e-05
 7.78475188454467e-06 1.8472460021647733e-05 7.78475188454467e-06 1.8472460021647733e-05 0.013484191500923172 0.04157174914797596 0.8758956503298522 -0.4738244746646582
 4.051412831134564e-05 3.769698843426926e-05 9.842901694850384e-06 1.7445824593635323e-05 0.8758956503298522 -0.4738244746646582 0.013484191500923172 0.04157174914797596
1077142857.142857 0.011023630279781114 0.04262349602440619 0.9168328924440207 -0.3902204846905262 7.91206352668462e-06 1.8602487223024234e-05 4.097124930864442e-05 3.772734462232156e-05
 0.9168328924440207 -0.3902204846905262 0.011023630279781114 0.04262349602440619 7.91206352668462e-06 1.8602487223024234e-05 9.992055434025433e-06 1.757126981306746e-05
 7.91206352668462e-06 1.8602487223024234e-05 7.91206352668462e-06 1.8602487223024234e-05 0.013590051400023964 0.0417148475316045 0.8747743990266813 -0.4758430742300542
 4.088878773457179e-05 3.7732843406216215e-05 9.992055434025433e-06 1.757126981306746e-05 0.8747743990266813 -0.4758430742300542 0.013590051400023964 0.0417148475316045
1082224489.7959185 0.011115241525194596 0.04278853684005159 0.9160814114880985 -0.3919311592331334 8.041254906910314e-06 1.8731991507708206e-05 4.134658086421063e-05 3.776243621482526e-05
 0.9160814114880985 -0.3919311592331334 0.011115241525194596 0.04278853684005159 8.041254906910314e-06 1.8731991507708206e-05 1.0143172766647147e-05 1.769611660188982e-05
 8.041254906910314e-06 1.8731991507708206e-05 8.041254906910314e-06 1.8731991507708206e-05 0.013696031181007031 0.04185737809795758 0.8736490613288851 -0.4778592030794747
 4.12647453163923e-05 3.7767032847937416e-05 1.0143172766647147e-05 1.769611660188982e-05 0.8736490613288851 -0.4778592030794747 0.013696031181007031 0.04185737809795758
1087306122.4489796 0.011207059935797669 0.042953186465244306 0.9153271275348961 -0.39364049667458306 8.172332616277197e-06 1.886094883225308e-05 4.172319985207018e-05 3.779586674522118e-05
 0.9153271275348961 -0.39364049667458306 0.011207059935797669 0.042953186465244306 8.172332616277197e-06 1.886094883225308e-05 1.0296258181823657e-05 1.7820339817592253e-05
 8.172332616277197e-06 1.886094883225308e-05 8.172332616277197e-06 1.886094883225308e-05 0.013802129171199582 0.041999341586973084 0.8725196345004129 -0.47987286640078314
 4.1642008234204665e-05 3.779955740027248e-05 1.0296258181823657e-05 1.7820339817592253e-05 0.8725196345004129 -0.47987286640078314 0.013802129171199582 0.041999341586973084
1092387755.1020408 0.011299084984424225 0.043117445206231814 0.9145700373216991 -0.39534850191705273 8.305303032410731e-06 1.8989335219946925e-05 4.2101114078212184e-05 3.782763654964337e-05
 0.9145700373216991 -0.39534850191705273 0.011299084984424225 0.043117445206231814 8.305303032410731e-06 1.8989335219946925e-05 1.0451315883356038e-05 1.7943914315243844e-05
 8.305303032410731e-06 1.8989335219946925e-05 8.305303032410731e-06 1.8989335219946925e-05 0.013908343729217442 0.042140738710733525 0.8713861155135435 -0.4818840691422188
 4.2020583932592005e-05 3.783041746222346e-05 1.0451315883356038e-05 1.7943914315243844e-05 0.8713861155135435 -0.4818840691422188 0.013908343729217442 0.042140738710733525
1097469387.755102 0.011391316168524937 0.04328131334748483 0.9138101373806552 -0.397055179699049 8.44017232133866e-06 1.9117126763548385e-05 4.248033160850348e-05 3.7857745717020415e-05
 0.9138101373806552 -0.397055179699049 0.011391316168524937 0.04328131334748483 8.44017232133866e-06 1.9117126763548385e-05 1.0608349792275127e-05 1.806681494916292e-05
 8.44017232133866e-06 1.9117126763548385e-05 8.44017232133866e-06 1.9117126763548385e-05 0.014014673243902294 0.04228157015302465 0.8702485010551863 -0.48389281600839484
 4.240048011969141e-05 3.7859613186292227e-05 1.0608349792275127e-05 1.806681494916292e-05 0.8702485010551863 -0.48389281600839484 0.014014673243902294 0.04228157015302465
1102551020.4081633 0.01148375300934253 0.043444791151317996 0.9130474240429811 -0.3987605345926727 8.576946439283712e-06 1.9244299627979946e-05 4.2860860765170884e-05 3.788619408441366e-05
 0.9130474240429811 -0.3987605345926727 0.01148375300934253 0.043444791151317996 8.576946439283712e-06 1.9244299627979946e-05 1.076736354933452e-05 1.8189016574549037e-05
 8.576946439283712e-06 1.9244299627979946e-05 8.576946439283712e-06 1.9244299627979946e-05 0.014121116133259167 0.04242183656890979 0.8691067875331742 -0.48589911145638953
 4.2781704763562345e-05 3.7887144473842224e-05 1.076736354933452e-05 1.8189016574549037e-05 0.8691067875331742 -0.48589911145638953 0.014121116133259167 0.04242183656890979
1107632653.0612245 0.011576395051087793 0.04360787885752037 0.9122818934431528 -0.4004645710009378 8.715631134416515e-06 1.9370830052980474e-05 4.3242710123281965e-05 3.7912981232376925e-05
 0.9122818934431528 -0.4004645710009378 0.011576395051087793 0.04360787885752037 8.715631134416515e-06 1.9370830052980474e-05 1.092836051745974e-05 1.8310494049078675e-05
 8.715631134416515e-06 1.9370830052980474e-05 8.715631134416515e-06 1.9370830052980474e-05 0.014227670843399142 0.04256153858431966 0.8679609710825432 -0.4879029596919275
 4.3164266088554506e-05 3.791301097048231e-05 1.092836051745974e-05 1.8310494049078675e-05 0.8679609710825432 -0.4879029596919275 0.014227670843399142 0.04256153858431966
1112714285.7142856 0.011669241860116699 0.04377057668299429 0.9115135415230993 -0.40216729315515076 8.856231948568289e-06 1.949669435571943e-05 4.362588850722383e-05 3.793810648033583e-05
 0.9115135415230993 -0.40216729315515076 0.011669241860116699 0.04377057668299429 8.856231948568289e-06 1.949669435571943e-05 1.1091343784153168e-05 1.8431222234466713e-05
 8.856231948568289e-06 1.949669435571943e-05 8.856231948568289e-06 1.949669435571943e-05 0.014334335847483781 0.042700676795657595 0.8668110475718054 -0.4899043646656483
 4.354817257167461e-05 3.793721206147043e-05 1.1091343784153168e-05 1.8431222234466713e-05 0.8668110475718054 -0.4899043646656483 0.014334335847483781 0.042700676795657595
1117795918.3673468 0.011762293024110587 0.04393288482140461 0.9107423640363757 -0.40386870511234374 8.998754218903094e-06 1.9621868933374778e-05 4.401040498717911e-05 3.7961568881984324e-05
 0.9107423640363757 -0.40386870511234374 0.011762293024110587 0.04393288482140461 8.998754218903094e-06 1.9621868933374778e-05 1.125631616385463e-05 1.8551175997995433e-05
 8.998754218903094e-06 1.9621868933374778e-05 8.998754218903094e-06 1.9621868933374778e-05 0.01444110964467346 0.04283925176941998 0.8656570126092035 -0.4919033300694616
 4.393343293895157e-05 3.7959746867135134e-05 1.125631616385463e-05 1.8551175997995433e-05 0.8656570126092035 -0.4919033300694616 0.01444110964467346 0.04283925176941998
1122877551.0204082 0.011855548151259962 0.0440948034428372 0.9099683565523422 -0.4055688107527623 9.143203079549278e-06 1.974633026567665e-05 4.439626887559823e-05 3.798336722069623e-05
 0.9099683565523422 -0.4055688107527623 0.011855548151259962 0.0440948034428372 9.143203079549278e-06 1.974633026567665e-05 1.1423280200257345e-05 1.8670330214012973e-05
 9.143203079549278e-06 1.974633026567665e-05 9.143203079549278e-06 1.974633026567665e-05 0.014547990759080717 0.04297726404183364 0.8644988615489652 -0.49389985933298514
 4.432005616179892e-05 3.798061423831238e-05 1.1423280200257345e-05 1.8670330214012973e-05 0.8644988615489652 -0.49389985933298514 0.014547990759080717 0.04297726404183364
1127959183.6734693 0.01194900686944603 0.04425633269346437 0.9091915144603249 -0.4072676137774056 9.289583463190008e-06 1.987005491741902e-05 4.478348972366788e-05 3.800350000494971e-05
 0.9091915144603249 -0.4072676137774056 0.01194900686944603 0.04425633269346437 9.289583463190008e-06 1.987005491741902e-05 1.1592238168579351e-05 1.878865976540309e-05
 9.289583463190008e-06 1.987005491741902e-05 9.289583463190008e-06 1.987005491741902e-05 0.01465497773872156 0.04311471411850358 0.8633365894975359 -0.49589395562006444
 4.4708051453374526e-05 3.799981275179589e-05 1.1592238168579351e-05 1.878865976540309e-05 0.8633365894975359 -0.49589395562006444 0.01465497773872156 0.04311471411850358
1133040816.3265305 0.012042668825430952 0.044417472695220936 0.9084118329737741 -0.4089651177056189 9.437900102612561e-06 1.999301954094129e-05 4.517207731777448e-05 3.8021965463762736e-05
 0.9084118329737741 -0.4089651177056189 0.012042668825430952 0.044417472695220936 9.437900102612561e-06 1.999301954094129e-05 1.1763192077790096e-05 1.8906139545028153e-05
 9.437900102612561e-06 1.999301954094129e-05 9.437900102612561e-06 1.999301954094129e-05 0.01476206915447714 0.04325160247408019 0.8621701913198115 -0.4978856218253725
 4.509742826493613e-05 3.8017340705798744e-05 1.1763192077790096e-05 1.8906139545028153e-05 0.8621701913198115 -0.4978856218253725 0.01476206915447714 0.04325160247408019
1138122448.9795918 0.012136533684044286 0.04457822354548795 0.9076293071344181 -0.4106613258727345 9.588157532216266e-06 2.0115200878581936e-05 4.556204167596184e-05 3.8038761542137054e-05
 0.9076293071344181 -0.4106613258727345 0.012136533684044286 0.04457822354548795 9.588157532216266e-06 2.0115200878581936e-05 1.1936143672792273e-05 1.9022744457147002e-05
 9.588157532216266e-06 2.0115200878581936e-05 9.588157532216266e-06 2.0115200878581936e-05 0.014869263599052307 0.04338792955193696 0.860999661645355 -0.4998748605710882
 4.5488196282192264e-05 3.8033196115424254e-05 1.1936143672792273e-05 1.9022744457147002e-05 0.860999661645355 -0.4998748605710882 0.014869263599052307 0.04338792955193696
1143204081.632653 0.012230601127374766 0.04473858531678434 0.9068439318164037 -0.4123562414277647 9.74036008947885e-06 2.0236575765106176e-05 4.5953393044382446e-05 3.805388589650908e-05
 0.9068439318164037 -0.4123562414277647 0.012230601127374766 0.04473858531678434 9.74036008947885e-06 2.0236575765106176e-05 1.2111094436558779e-05 1.9138449418809712e-05
 9.74036008947885e-06 2.0236575765106176e-05 9.74036008947885e-06 2.0236575765106176e-05 0.014976559685941518 0.0435236957638638 0.8598249948746052 -0.5018616742036487
 4.588036542164773e-05 3.8047376708143944e-05 1.2111094436558779e-05 1.9138449418809712e-05 0.8598249948746052 -0.5018616742036487 0.014976559685941518 0.0435236957638638
1148285714.2857141 0.012324870853964272 0.04489855805646812 0.9060557017304386 -0.41404986733113947 9.894511916381066e-06 2.035712113010965e-05 4.63461418937411e-05 3.806733589020538e-05
 0.9060557017304386 -0.41404986733113947 0.012324870853964272 0.04489855805646812 9.894511916381066e-06 2.035712113010965e-05 1.2288045592224892e-05 1.925322936123094e-05
 9.894511916381066e-06 2.035712113010965e-05 9.894511916381066e-06 2.035712113010965e-05 0.015083956048397032 0.04365890148977484 0.8586461851850791 -0.503846064790579
 4.62739458269424e-05 3.8059879919280806e-05 1.2288045592224892e-05 1.925322936123094e-05 0.8586461851850791 -0.503846064790579 0.015083956048397032 0.04365890148977484
1153367346.9387755 0.012419342578002337 0.04505814178644305 0.9052646114279197 -0.415742206352492 1.0050616960789576e-05 2.0476814000400144e-05 4.674029891573041e-05 3.807910858890084e-05
 0.9052646114279197 -0.415742206352492 0.012419342578002337 0.04505814178644305 1.0050616960789576e-05 2.0476814000400144e-05 1.246699810513567e-05 1.9367059231143664e-05
 1.0050616960789576e-05 2.0476814000400144e-05 1.0050616960789576e-05 2.0476814000400144e-05 0.015191451338399128 0.0437935470774267 0.8574632265375617 -0.5058280341173919
 4.666894786518264e-05 3.807070288749562e-05 1.246699810513567e-05 1.9367059231143664e-05 0.8574632265375617 -0.5058280341173919 0.015191451338399128 0.0437935470774267
1158448979.5918367 0.012514016028524566 0.045217336502877806 0.9044706553050629 -0.4174332610684888 1.0208678977797693e-05 2.0595631502359155e-05 4.713587501945662e-05 3.808920075607768e-05
 0.9044706553050629 -0.4174332610684888 0.012514016028524566 0.045217336502877806 1.0208678977797693e-05 2.0595631502359155e-05 1.2647952684848496e-05 1.9479913992135155e-05
 1.0208678977797693e-05 2.0595631502359155e-05 1.0208678977797693e-05 2.0595631502359155e-05 0.015299044225631792 0.0439276328421554 0.8562761126822926 -0.507807583684559
 4.706538212326451e-05 3.8079842450274735e-05 1.2647952684848496e-05 1.9479913992135155e-05 0.8562761126822926 -0.507807583684559 0.015299044225631792 0.0439276328421554
1163530612.2448978 0.012608890948611817 0.04537614217592581 0.903673827607023 -0.4191230338607071 1.0368701531024398e-05 2.0713550864285468e-05 4.75328813278555e-05 3.8097608848483225e-05
 0.903673827607023 -0.4191230338607071 0.012608890948611817 0.04537614217592581 1.0368701531024398e-05 2.0713550864285468e-05 1.2830909787091237e-05 1.9591768625966913e-05
 1.0368701531024398e-05 2.0713550864285468e-05 1.0368701531024398e-05 2.0713550864285468e-05 0.015406733396460042 0.04406115906662004 0.855084837165139 -0.5097847147045541
 4.746325940418733e-05 3.808729513941699e-05 1.2830909787091237e-05 1.9591768625966913e-05 0.855084837165139 -0.5097847147045541 0.015406733396460042 0.04406115906662004
1168612244.897959 0.012703967094592365 0.04553455874946028 0.9028741224320106 -0.42081152691355206 1.053068799387095e-05 2.0830549418722407e-05 4.793132917409621e-05 3.810432901158463e-05
 0.9028741224320106 -0.42081152691355206 0.012703967094592365 0.04553455874946028 1.053068799387095e-05 2.0830549418722407e-05 1.3015869615675554e-05 1.9702598133880375e-05
 1.053068799387095e-05 2.0830549418722407e-05 1.053068799387095e-05 2.0830549418722407e-05 0.0155145175529103 0.04419412600056474 0.8538893933337688 -0.5117594280989612
 4.7862590723356776e-05 3.809305717651826e-05 1.3015869615675554e-05 1.9702598133880375e-05 0.8538893933337688 -0.5117594280989612 0.0155145175529103 0.04419412600056474
1173693877.5510204 0.012799244235246294 0.04569258614081213 0.9020715337354047 -0.42249874221221684 1.0694641550735555e-05 2.094660460477066e-05 4.833123009797308e-05 3.810935707501855e-05
 0.9020715337354047 -0.42249874221221684 0.012799244235246294 0.04569258614081213 1.0694641550735555e-05 2.094660460477066e-05 1.3202832124366074e-05 1.981237753788998e-05
 1.0694641550735555e-05 2.094660460477066e-05 1.0694641550735555e-05 2.094660460477066e-05 0.015622395411657117 0.044326533860591516 0.8526897743438118 -0.5137317244956501
 4.826338730487625e-05 3.809712446845129e-05 1.3202832124366074e-05 1.981237753788998e-05 0.8526897743438118 -0.5137317244956501 0.015622395411657117 0.044326533860591516
1178775510.2040815 0.012894722151010531 0.045850224240515075 0.901266055333861 -0.42418468154068756 1.0860565198185818e-05 2.1061693970388855e-05 4.8732595842283526e-05 3.811268854803434e-05
 0.901266055333861 -0.42418468154068756 0.012894722151010531 0.045850224240515075 1.0860565198185818e-05 2.1061693970388855e-05 1.339179701870525e-05 1.992108188206572e-05
 1.0860565198185818e-05 2.1061693970388855e-05 1.0860565198185818e-05 2.1061693970388855e-05 0.015730365703007586 0.04445838282994386 0.8514859731650187 -0.5157016042260183
 4.866566057782567e-05 3.809949260283973e-05 1.339179701870525e-05 1.992108188206572e-05 0.8514859731650187 -0.5157016042260183 0.015730365703007586 0.04445838282994386
1183857142.8571427 0.01299040063318793 0.0460074729120613 0.9004576809094175 -0.425869346479783 1.1028461746088922e-05 2.117579517468316e-05 4.913543834919091e-05 3.8114318614928096e-05
 0.9004576809094175 -0.425869346479783 0.01299040063318793 0.0460074729120613 1.1028461746088922e-05 2.117579517468316e-05 1.3582763757794203e-05 2.0028686233806405e-05
 1.1028461746088922e-05 2.117579517468316e-05 1.1028461746088922e-05 2.117579517468316e-05 0.01583842716989507 0.04458967305830583 0.8502779825874116 -0.5176690673222953
 4.906942217252606e-05 3.8100156843523694e-05 1.3582763757794203e-05 2.0028686233806405e-05 0.8502779825874116 -0.5176690673222953 0.01583842716989507 0.04458967305830583
1188938775.510204 0.01308627948315726 0.046164331991660854 0.8996464040135962 -0.42755273840524 1.1198333818699828e-05 2.1288885990188357e-05 4.9539769756571514e-05 3.811424213046693e-05
 0.8996464040135962 -0.42755273840524 0.01308627948315726 0.046164331991660854 1.1198333818699828e-05 2.1288885990188357e-05 1.377573155602975e-05 2.0135165685105873e-05
 1.1198333818699828e-05 2.1288885990188357e-05 1.1198333818699828e-05 2.1288885990188357e-05 0.01594657856687177 0.0447204046616115 0.8490657952274353 -0.5196341135149105
 4.947468391678888e-05 3.809911212601569e-05 1.377573155602975e-05 2.0135165685105873e-05 0.8490657952274353 -0.5196341135149105 0.01594657856687177 0.0447204046616115
1194020408.1632652 0.013182358511584063 0.046320801288010145 0.8988322180715023 -0.4292348584858324 1.1370183855707104e-05 2.140094430514158e-05 4.9945602394343836e-05 3.8112453615300626e-05
 0.8988322180715023 -0.4292348584858324 0.013182358511584063 0.046320801288010145 1.1370183855707104e-05 2.140094430514158e-05 1.397069938479784e-05 2.0240495353813438e-05
 1.1370183855707104e-05 2.140094430514158e-05 1.1370183855707104e-05 2.140094430514158e-05 0.0160548186591058 0.044850577721867645 0.8478494035341001 -0.5215967422299206
 4.988145783214884e-05 3.8096353052944765e-05 1.397069938479784e-05 2.0240495353813438e-05 0.8478494035341001 -0.5215967422299206 0.0160548186591058 0.044850577721867645
1199102040.8163264 0.013278637537635923 0.04647688058206624 0.8980151163859235 -0.4309157076815311 1.154401411323679e-05 2.151194812575105e-05 5.0352948780779455e-05 3.81089472513596e-05
 0.8980151163859235 -0.4309157076815311 0.013278637537635923 0.04647688058206624 1.154401411323679e-05 2.151194812575105e-05 1.4167665974123798e-05 2.0344650384890655e-05
 1.154401411323679e-05 2.151194812575105e-05 1.154401411323679e-05 2.151194812575105e-05 0.01616314622138232 0.0449801922869866 0.8466287997951245 -0.5235569525865013
 5.028975613007892e-05 3.809187388948769e-05 1.4167665974123798e-05 2.0344650384890655e-05 0.8466287997951245 -0.5235569525865013 0.01616314622138232 0.0449801922869866
1204183673.4693878 0.01337511638819797 0.04663256962682918 0.8971950921414267 -0.43259528674169984 1.1719826664814146e-05 2.162187557846111e-05 5.076182161879344e-05 3.810371687723726e-05
 0.8971950921414267 -0.43259528674169984 0.01337511638819797 0.04663256962682918 1.1719826664814146e-05 2.162187557846111e-05 1.4366629814279328e-05 2.0447605951665796e-05
 1.1719826664814146e-05 2.162187557846111e-05 1.1719826664814146e-05 2.162187557846111e-05 0.01627156003710612 0.0451092483706343 0.8454039761430738 -0.5255147433944911
 5.0699591208186055e-05 3.8085668558784755e-05 1.4366629814279328e-05 2.0447605951665796e-05 0.8454039761430738 -0.5255147433944911 0.01627156003710612 0.0451092483706343
1209265306.122449 0.013471794897089318 0.04678786814712882 0.8963721384084524 -0.434273596203328 1.1897623402283439e-05 2.173070491221553e-05 5.117223379221352e-05 3.809675598355495e-05
 0.8963721384084524 -0.434273596203328 0.013471794897089318 0.04678786814712882 1.1897623402283439e-05 2.173070491221553e-05 1.4567589157347013e-05 2.0549337257087965e-05
 1.1897623402283439e-05 2.173070491221553e-05 1.1897623402283439e-05 2.173070491221553e-05 0.016380058897308078 0.04523774595208542 0.8441749245615006 -0.527470113152001
 5.111097564638602e-05 3.807773063733889e-05 1.4567589157347013e-05 2.0549337257087965e-05 0.8441749245615006 -0.527470113152001 0.016380058897308078 0.04523774595208542
1214346938.77551 0.013568672904284543 0.04694277583942248 0.895546248147412 -0.43595063638929865 1.2077406036685863e-05 2.1838414500720836e-05 5.158419836202621e-05 3.8088057708308115e-05
 0.895546248147412 -0.43595063638929865 0.013568672904284543 0.04694277583942248 1.2077406036685863e-05 2.1838414500720836e-05 1.4770542018742317e-05 2.0649819534982457e-05
 1.2077406036685863e-05 2.1838414500720836e-05 1.2077406036685863e-05 2.1838414500720836e-05 0.01648864159965538 0.045365684976095326 0.842941636891081 -0.5294230600430754
 5.1523922203056596e-05 3.806805335039672e-05 1.4770542018742317e-05 2.0649819534982457e-05 0.842941636891081 -0.5294230600430754 0.01648864159965538 0.045365684976095326
1219428571.4285715 0.013665750255131953 0.04709729237159411 0.8947174142127851 -0.4376264074066919 1.2259176099095556e-05 2.1944982844711187e-05 5.199772856259854e-05 3.807761483219184e-05
 0.8947174142127851 -0.4376264074066919 0.013665750255131953 0.04709729237159411 1.2259176099095556e-05 2.1944982844711187e-05 1.4975486178693551e-05 2.0749028051309052e-05
 1.2259176099095556e-05 2.1944982844711187e-05 1.2259176099095556e-05 2.1944982844711187e-05 0.016597306947462104 0.045493065352778084 0.8417041048357542 -0.5313735819354117
 5.1938443811166565e-05 3.8056629567309434e-05 1.4975486178693551e-05 2.0749028051309052e-05 0.8417041048357542 -0.5313735819354117 0.016597306947462104 0.045493065352778084
1224510204.0816326 0.013763026799579393 0.047251417382763936 0.8938856293572149 -0.4393009091451227 1.2442934941414144e-05 2.2050388574216563e-05 5.241283779787373e-05 3.8065419773904116e-05
 0.8938856293572149 -0.4393009091451227 0.013763026799579393 0.047251417382763936 1.2442934941414144e-05 2.2050388574216563e-05 1.51824191836802e-05 2.0846938105424878e-05
 1.2442934941414144e-05 2.2050388574216563e-05 1.2442934941414144e-05 2.2050388574216563e-05 0.016706053748705797 0.04561988695750155 0.8404623199688619 -0.5333216763781332
 5.235455357438007e-05 3.804345179687196e-05 1.51824191836802e-05 2.0846938105424878e-05 0.8404623199688619 -0.5333216763781332 0.016706053748705797 0.04561988695750155
1229591836.7346938 0.01386050239139596 0.04740515048310258 0.89305088623561 -0.440974141275113 1.2628683737123572e-05 2.2154610450836024e-05 5.2829539637539486e-05 3.8051464585425515e-05
 0.89305088623561 -0.440974141275113 0.01386050239139596 0.04740515048310258 1.2628683737123572e-05 2.2154610450836024e-05 1.5391338347829977e-05 2.0943525031353692e-05
 1.2628683737123572e-05 2.2154610450836024e-05 1.2628683737123572e-05 2.2154610450836024e-05 0.016814880815044887 0.04574614963078801 0.8392162737392901 -0.5352673405996198
 5.277226476313388e-05 3.80285121826393e-05 1.5391338347829977e-05 2.0943525031353692e-05 0.8392162737392901 -0.5352673405996198 0.016814880815044887 0.04574614963078801
1234673469.387755 0.013958176887399565 0.04755849125365295 0.8922131774092454 -0.44264610324649506 1.2816423481997672e-05 2.2257627370017536e-05 5.324784781316707e-05 3.8035740947273396e-05
 0.8922131774092454 -0.44264610324649506 0.013958176887399565 0.04755849125365295 1.2816423481997672e-05 2.2257627370017536e-05 1.5602240754275e-05 2.103876419906309e-05
 1.2816423481997672e-05 2.2257627370017536e-05 1.2816423481997672e-05 2.2257627370017536e-05 0.016923786960839377 0.045871853178230844 0.8379659574776143 -0.537210571505388
 5.319159081068648e-05 3.8011802498218017e-05 1.5602240754275e-05 2.103876419906309e-05 0.8379659574776143 -0.537210571505388 0.016923786960839377 0.045871853178230844
1239755102.0408163 0.014056050146682418 0.047711439246156735 0.8913724953498673 -0.44431679428685134 1.3006154994772444e-05 2.2359418363345998e-05 5.366777621431953e-05 3.801824016372939e-05
 0.8913724953498673 -0.44431679428685134 0.014056050146682418 0.047711439246156735 1.3006154994772444e-05 2.2359418363345998e-05 1.5815123256467563e-05 2.113263101575129e-05
 1.3006154994772444e-05 2.2359418363345998e-05 1.3006154994772444e-05 2.2359418363345998e-05 0.017032771002173215 0.0459969973704193 0.8367113624022469 -0.539151365676027
 5.361254530913718e-05 3.799331414253143e-05 1.5815123256467563e-05 2.113263101575129e-05 0.8367113624022469 -0.539151365676027 0.017032771002173215 0.0459969973704193
1244836734.6938775 0.014154122029842236 0.04786399398288914 0.8905288324438035 -0.4459862133999819 1.3197878917775326e-05 2.2459962600841206e-05 5.4089338884627456e-05 3.799895315803848e-05
 0.8905288324438035 -0.4459862133999819 0.014154122029842236 0.04786399398288914 1.3197878917775326e-05 2.2459962600841206e-05 1.6029982479455825e-05 2.122510092714535e-05
 1.3197878917775326e-05 2.2459962600841206e-05 1.3197878917775326e-05 2.2459962600841206e-05 0.017141831755882263 0.04612158194287595 0.8354524796255935 -0.5410897193651839
 5.403514200541314e-05 3.797303813505731e-05 1.6029982479455825e-05 2.122510092714535e-05 0.8354524796255935 -0.5410897193651839 0.017141831755882263 0.04612158194287595
1249918367.3469386 0.014252392398210372 0.04801615495649859 0.8896821809960752 -0.44765435936440845 1.3391595717513672e-05 2.2559239393267198e-05 5.4512550017830735e-05 3.797787046757826e-05
 0.8896821809960752 -0.44765435936440845 0.014252392398210372 0.04801615495649859 1.3391595717513672e-05 2.2559239393267198e-05 1.6246814821120217e-05 2.131614941881235e-05
 1.3391595717513672e-05 2.2559239393267198e-05 1.3391595717513672e-05 2.2559239393267198e-05 0.017250968038582008 0.04624560659600312 0.8341893001602113 -0.5430256284976056
 5.445939479722359e-05 3.795096511103623e-05 1.6246814821120217e-05 2.131614941881235e-05 0.8341893001602113 -0.5430256284976056 0.017250968038582008 0.04624560659600312
1255000000.0 0.014350861113083618 0.04816792162985365 0.8888325332345175 -0.4493212307319065 1.358730568522256e-05 2.2657228194454652e-05 5.493742395378401e-05 3.7954982238997e-05
 0.8888325332345175 -0.4493212307319065 0.014350861113083618 0.04816792162985365 1.358730568522256e-05 2.2657228194454652e-05 1.6465616453370662e-05 2.1405752017485192e-05
 1.358730568522256e-05 2.2657228194454652e-05 1.358730568522256e-05 2.2657228194454652e-05 0.01736017866569769 0.04636907099504351 0.832921814924975 -0.5449590886672243
 5.488531772897812e-05 3.7927085316649366e-05 1.6465616453370662e-05 2.1405752017485192e-05 0.832921814924975 -0.5449590886672243 0.01736017866569769 0.04636907099504351
1260081632.6530612 0.014449528034957547 0.04831929343589453 0.8879798813139044 -0.45098682582607036 1.3785008937372121e-05 2.2753908603637797e-05 5.536397517442435e-05 3.793027822331894e-05
 0.8879798813139044 -0.45098682582607036 0.014449528034957547 0.04831929343589453 1.3785008937372121e-05 2.2753908603637797e-05 1.6686383323305266e-05 2.1493884292404647e-05
 1.3785008937372121e-05 2.2753908603637797e-05 1.3785008937372121e-05 2.2753908603637797e-05 0.017469462450499327 0.046491974770047795 0.8316500147512533 -0.5468900951353015
 5.5312924987668276e-05 3.79013886041643e-05 1.6686383323305266e-05 2.1493884292404647e-05 0.8316500147512533 -0.5468900951353015 0.017469462450499327 0.046491974770047795
1265163265.3061223 0.014548393022759187 0.04847026977749401 0.8871242173200797 -0.4526511427409074 1.3984705416134906e-05 2.2849260367807458e-05 5.5792218299699434e-05 3.790374777101542e-05
 0.8871242173200797 -0.4526511427409074 0.014548393022759187 0.04847026977749401 1.3984705416134906e-05 2.2849260367807458e-05 1.690911115433125e-05 2.1580521856679513e-05
 1.3984705416134906e-05 2.2849260367807458e-05 1.3984705416134906e-05 2.2849260367807458e-05 0.017578818203136323 0.04661431751585682 0.83037389038909 -0.5488186428286141
 5.574223089871012e-05 3.7873864427047285e-05 1.690911115433125e-05 2.1580521856679513e-05 0.83037389038909 -0.5488186428286141 0.017578818203136323 0.04661431751585682
1270244897.9591837 0.014647455933083139 0.04862085002732007 0.8862655332740969 -0.4543141793394658 1.4186394889813162e-05 2.294326338408174e-05 5.622216808345401e-05 3.7875379827040824e-05
 0.8862655332740969 -0.4543141793394658 0.014647455933083139 0.04862085002732007 1.4186394889813162e-05 2.294326338408174e-05 1.713379544724832e-05 2.166564036866632e-05
 1.4186394889813162e-05 2.294326338408174e-05 1.4186394889813162e-05 2.294326338408174e-05 0.017688244729676592 0.04673609879209123 0.8290934325133998 -0.5507447263376987
 5.617324992174592e-05 3.7844501835040935e-05 1.713379544724832e-05 2.166564036866632e-05 0.8290934325133998 -0.5507447263376987 0.017688244729676592 0.04673609879209123
1275326530.6122448 0.014746716619425273 0.048771033527709375 0.8854038211363668 -0.4559759332524879 1.4390076953226495e-05 2.303589770209568e-05 5.6653839409272615e-05 3.784516292583135e-05
 0.8854038211363668 -0.4559759332524879 0.014746716619425273 0.048771033527709375 1.4390076953226495e-05 2.303589770209568e-05 1.7360431481295124e-05 2.174921553337021e-05
 1.4390076953226495e-05 2.303589770209568e-05 1.4390076953226495e-05 2.303589770209568e-05 0.017797740831146536 0.04685731812315427 0.8278086317301713 -0.552668339915137
 5.66059966464028e-05 3.781328946920547e-05 1.7360431481295124e-05 2.174921553337021e-05 0.8278086317301713 -0.552668339915137 0.017797740831146536 0.04685731812315427
1280408163.265306 0.014846174931422661 0.04892081959054326 0.8845390728108131 -0.4576364018770986 1.4595751028060337e-05 2.3127143526411785e-05 5.708724728627731e-05 3.781308518626591e-05
 0.8845390728108131 -0.4576364018770986 0.014846174931422661 0.04892081959054326 1.4595751028060337e-05 2.3127143526411785e-05 1.758901431515979e-05 2.1831223103868975e-05
 1.4595751028060337e-05 2.3127143526411785e-05 1.4595751028060337e-05 2.3127143526411785e-05 0.017907305302574318 0.04697797499824408 0.8265194785826824 -0.5545894774738965
 5.704048578800704e-05 3.7780215556922776e-05 1.758901431515979e-05 2.1831223103868975e-05 0.8265194785826824 -0.5545894774738965 0.017907305302574318 0.04697797499824408
1285489795.9183671 0.01494583071408865 0.04907020749713139 0.8836712801490416 -0.45929558237552 1.4803416363175137e-05 2.3216981218952297e-05 5.752240684487702e-05 3.777913430658742e-05
 0.8836712801490416 -0.45929558237552 0.01494583071408865 0.04907020749713139 1.4803416363175137e-05 2.3216981218952297e-05 1.781953878795437e-05 2.191163888276141e-05
 1.4803416363175137e-05 2.3216981218952297e-05 1.4803416363175137e-05 2.3216981218952297e-05 0.018016936932033156 0.047098068871376644 0.8252259635577328 -0.556508132585716
 5.7476732183250996e-05 3.774526790686167e-05 1.781953878795437e-05 2.191163888276141e-05 0.8252259635577328 -0.556508132585716 0.018016936932033156 0.047098068871376644
1290571428.5714285 0.015045683807052271 0.04921919649810273 0.8828004349545148 -0.46095347167381767 1.5013072034876989e-05 2.3305391301455225e-05 5.7959333332468e-05 3.774329755928354e-05
 0.8828004349545148 -0.46095347167381767 0.015045683807052271 0.04921919649810273 1.5013072034876989e-05 2.3305391301455225e-05 1.8051999520154683e-05 2.199043872364213e-05
 1.5013072034876989e-05 2.3305391301455225e-05 1.5013072034876989e-05 2.3305391301455225e-05 0.01812663449968985 0.047217599161420806 0.8239280770918851 -0.558424298479542
 5.7914750785811344e-05 3.77084339039031e-05 1.8051999520154683e-05 2.199043872364213e-05 0.8239280770918851 -0.558424298479542 0.01812663449968985 0.047217599161420806
1295653061.2244897 0.01514573404379791 0.04936778581330096 0.8819265289867427 -0.46261006646067576 1.5224716947149764e-05 2.3392354457955194e-05 5.8398042109082e-05 3.770556178592537e-05
 0.8819265289867427 -0.46261006646067576 0.01514573404379791 0.04936778581330096 1.5224716947149764e-05 2.3392354457955194e-05 1.8286390914505587e-05 2.206759853260417e-05
 1.5224716947149764e-05 2.3392354457955194e-05 1.5224716947149764e-05 2.3392354457955194e-05 0.018236396776852445 0.04733656525214264 0.8226258095777255 -0.560337968040014
 5.835455666191612e-05 3.7669700504024193e-05 1.8286390914505587e-05 2.206759853260417e-05 0.8226258095777255 -0.560337968040014 0.018236396776852445 0.04733656525214264
1300734693.8775508 0.015245981250903894 0.049515974631685916 0.8810495539654828 -0.4642653631862026 1.5438349831849263e-05 2.3477851537290695e-05 5.8838548642980705e-05 3.766591339196303e-05
 0.8810495539654828 -0.4642653631862026 0.015245981250903894 0.049515974631685916 1.5438349831849263e-05 2.3477851537290695e-05 1.852270715689266e-05 2.214309426977108e-05
 1.5438349831849263e-05 2.3477851537290695e-05 1.5438349831849263e-05 2.3477851537290695e-05 0.018346222525020627 0.04745496649226019 0.8213191513701381 -0.5622491338059964
 5.8796164985858564e-05 3.76290542291398e-05 1.852270715689266e-05 2.214309426977108e-05 0.8213191513701381 -0.5622491338059964 0.018346222525020627 0.04745496649226019
1305816326.5306122 0.015346425247285548 0.04966376211124333 0.8801695015749539 -0.4659193580607644 1.565396924885958e-05 2.3561863555639076e-05 5.928086850619386e-05 3.7624338341476835e-05
 0.8801695015749539 -0.4659193580607644 0.015346425247285548 0.04966376211124333 1.565396924885958e-05 2.3561863555639076e-05 1.876094221718084e-05 2.221690195086035e-05
 1.565396924885958e-05 2.3561863555639076e-05 1.565396924885958e-05 2.3561863555639076e-05 0.018456110494939046 0.04757280219551072 0.8200080927925983 -0.5641577879691592
 5.923959103545539e-05 3.758648116190047e-05 1.876094221718084e-05 2.221690195086035e-05 0.8200080927925983 -0.5641577879691592 0.018456110494939046 0.04757280219551072
1310897959.1836734 0.015447065843432558 0.04981114737889872 0.8792863634680657 -0.46757204705385047 1.587157358621223e-05 2.3644371699080717e-05 5.972501736999896e-05 3.758082215188316e-05
 0.8792863634680657 -0.46757204705385047 0.015447065843432558 0.04981114737889872 1.587157358621223e-05 2.3644371699080717e-05 1.900108985002082e-05 2.228899764877958e-05
 1.587157358621223e-05 2.3644371699080717e-05 1.587157358621223e-05 2.3644371699080717e-05 0.018566059425651142 0.04769007164072695 0.8186926241434849 -0.5660639223726107
 5.9684850187447366e-05 3.7541966940445775e-05 1.900108985002082e-05 2.228899764877958e-05 0.8186926241434849 -0.5660639223726107 0.018566059425651142 0.04769007164072695
1315979591.8367345 0.01554790284065377 0.04995812953044017 0.8784001312706596 -0.4692234258929656 1.609116106016831e-05 2.3725357326193503e-05 6.017101100034033e-05 3.753534988859334e-05
 0.8784001312706596 -0.4692234258929656 0.01554790284065377 0.04995812953044017 1.609116106016831e-05 2.3725357326193503e-05 1.9243143595623895e-05 2.2359357495257183e-05
 1.609116106016831e-05 2.3725357326193503e-05 1.609116106016831e-05 2.3725357326193503e-05 0.018676068043554636 0.04780677407192639 0.8173727357024108 -0.5679675285095729
 6.013195791283969e-05 3.7495496753111375e-05 1.9243143595623895e-05 2.2359357495257183e-05 0.8173727357024108 -0.5679675285095729 0.018676068043554636 0.04780677407192639
1321061224.489796 0.015648936030317355 0.05010470763044236 0.8775107965857706 -0.4708734900625563 1.631272971526421e-05 2.38048019706795e-05 6.0618865253184966e-05 3.748790615962513e-05
 0.8775107965857706 -0.4708734900625563 0.015648936030317355 0.05010470763044236 1.631272971526421e-05 2.38048019706795e-05 1.9487096780506062e-05 2.242795768250932e-05
 1.631272971526421e-05 2.38048019706795e-05 1.631272971526421e-05 2.38048019706795e-05 0.018786135061459572 0.04792290869840665 0.8160484177365745 -0.5698685975221117
 6.0580929772180247e-05 3.7447055333089594e-05 1.9487096780506062e-05 2.242795768250932e-05 0.8160484177365745 -0.5698685975221117 0.018786135061459572 0.04792290869840665
1326142857.142857 0.015750165193093253 0.05025088071220474 0.8766183509978985 -0.4725222348029611 1.653627742432116e-05 2.3882687344024412e-05 6.106859606981271e-05 3.743847511016526e-05
 0.8766183509978985 -0.4725222348029611 0.015750165193093253 0.05025088071220474 1.653627742432116e-05 2.3882687344024412e-05 1.9732942518201954e-05 2.2494774464944542e-05
 1.653627742432116e-05 2.3882687344024412e-05 1.653627742432116e-05 2.3882687344024412e-05 0.01889625917764706 0.048038474694859015 0.814719660507136 -0.5717671201999123
 6.1031781410772486e-05 3.7396626953041606e-05 1.9732942518201954e-05 2.2494774464944542e-05 0.814719660507136 -0.5717671201999123 0.01889625917764706 0.048038474694859015
1331224489.7959182 0.0158515900981957 0.05039664777768871 0.8757227860773033 -0.47416965510939796 1.6761801888419274e-05 2.395899533819178e-05 6.152021947203882e-05 3.738704041708212e-05
 0.8757227860773033 -0.47416965510939796 0.0158515900981957 0.05039664777768871 1.6761801888419274e-05 2.395899533819178e-05 1.998067370994982e-05 2.255978416090808e-05
 1.6761801888419274e-05 2.395899533819178e-05 1.6761801888419274e-05 2.395899533819178e-05 0.019006439074929875 0.04815347120148598 0.8133864542756127 -0.5736630869791065
 6.148452855382168e-05 3.734419541966061e-05 1.998067370994982e-05 2.255978416090808e-05 0.8133864542756127 -0.5736630869791065 0.019006439074929875 0.04815347120148598
1336306122.4489796 0.015953210502626103 0.05054200779746535 0.8748240933843122 -0.4758157457309749 1.698930063683629e-05 2.4033708028352793e-05 6.197375155736578e-05 3.733358528338761e-05
 0.8748240933843122 -0.4758157457309749 0.015953210502626103 0.05054200779746535 1.698930063683629e-05 2.4033708028352793e-05 2.023028304534782e-05 2.2622963154467167e-05
 1.698930063683629e-05 2.4033708028352793e-05 1.698930063683629e-05 2.4033708028352793e-05 0.019116673419714732 0.048267897324133224 0.8120487893103018 -0.5755564879411481
 6.193918700151077e-05 3.7289744068184983e-05 2.023028304534782e-05 2.2622963154467167e-05 0.8120487893103018 -0.5755564879411481 0.019116673419714732 0.048267897324133224
1341387755.1020408 0.01605502615041473 0.050686959710669895 0.8739222644736546 -0.4774605011697366 1.7218771026951686e-05 2.4106807675653225e-05 6.242920849406204e-05 3.7278092432647044e-05
 0.8739222644736546 -0.4774605011697366 0.01605502615041473 0.050686959710669895 1.7218771026951686e-05 2.4106807675653225e-05 2.048176300298289e-05 2.2684287897239196e-05
 1.7218771026951686e-05 2.4106807675653225e-05 1.7218771026951686e-05 2.4106807675653225e-05 0.01922696086106513 0.04838175213443326 0.8107066558927264 -0.5774473128117384
 6.23957726240042e-05 3.723325575686032e-05 2.048176300298289e-05 2.2684287897239196e-05 0.8107066558927264 -0.5774473128117384 0.01922696086106513 0.04838175213443326
1346469387.755102 0.01615703677186472 0.050831502424960845 0.8730172908988061 -0.4791039156797398 1.7450210244116744e-05 2.417827673001865e-05 6.288660651616556e-05 3.722054410333642e-05
 0.8730172908988061 -0.4791039156797398 0.01615703677186472 0.050831502424960845 1.7450210244116744e-05 2.417827673001865e-05 2.073510585103301e-05 2.2743734910264465e-05
 1.7450210244116744e-05 2.417827673001865e-05 1.7450210244116744e-05 2.417827673001865e-05 0.019337300029766705 0.04849503466995777 0.8093600443241098 -0.5793355509598047
 6.285430135637699e-05 3.717471286134943e-05 2.073510585103301e-05 2.2743734910264465e-05 0.8093600443241098 -0.5793355509598047 0.019337300029766705 0.04849503466995777
1351551020.408163 0.01625924208279407 0.050975634816486017 0.8721091642163616 -0.48074598326615964 1.7683615301490697e-05 2.424809783299909e-05 6.334596191840845e-05 3.716092204314591e-05
 0.8721091642163616 -0.48074598326615964 0.01625924208279407 0.050975634816486017 1.7683615301490697e-05 2.424809783299909e-05 2.0990303647843415e-05 2.2801280785925033e-05
 1.7683615301490697e-05 2.424809783299909e-05 1.7683615301490697e-05 2.424809783299909e-05 0.019447689537391715 0.048607743934382025 0.8080089449318774 -0.5812211913965273
 6.331478919346569e-05 3.711409726908946e-05 2.0990303647843415e-05 2.2801280785925033e-05 0.8080089449318774 -0.5812211913965273 0.019447689537391715 0.048607743934382025
1356632653.0612245 0.01636164178377809 0.05111935572986007 0.8711978759904258 -0.4823866976844282 1.7918983039844012e-05 2.431625382065459e-05 6.380729105106126e-05 3.709920750322871e-05
 0.8711978759904258 -0.4823866976844282 0.01636164178377809 0.05111935572986007 1.7918983039844012e-05 2.431625382065459e-05 2.1247348242478123e-05 2.2856902189911373e-05
 1.7918983039844012e-05 2.431625382065459e-05 1.7918983039844012e-05 2.431625382065459e-05 0.019558127975368416 0.048719878897664534 0.8066533480761853 -0.5831042227744196
 6.377725218463958e-05 3.705139037359528e-05 2.1247348242478123e-05 2.2856902189911373e-05 0.8066533480761853 -0.5831042227744196 0.019558127975368416 0.048719878897664534
1361714285.7142856 0.016464235559392294 0.051262663978139326 0.8702834177970304 -0.4840260524394045 1.8156310127328962e-05 2.4382727726482527e-05 6.427061031469309e-05 3.7035381232394354e-05
 0.8702834177970304 -0.4840260524394045 0.016464235559392294 0.051262663978139326 1.8156310127328962e-05 2.4382727726482527e-05 2.1506231275247326e-05 2.2910575863238628e-05
 1.8156310127328962e-05 2.4382727726482527e-05 1.8156310127328962e-05 2.4382727726482527e-05 0.019668613914046132 0.04883143849622846 0.8052932441564805 -0.5849846333864592
 6.424170642848857e-05 3.698657306870805e-05 2.1506231275247326e-05 2.2910575863238628e-05 0.8052932441564805 -0.5849846333864592 0.019668613914046132 0.04883143849622846
1366795918.3673468 0.01656702307745423 0.05140555834281439 0.8693657812285667 -0.48566404078457875 1.8395593059218308e-05 2.4447502784388167e-05 6.473593615484545e-05 3.696942347124607e-05
 0.8693657812285667 -0.48566404078457875 0.01656702307745423 0.05140555834281439 1.8395593059218308e-05 2.4447502784388167e-05 2.176694417821187e-05 2.2962278624314086e-05
 1.8395593059218308e-05 2.4447502784388167e-05 1.8395593059218308e-05 2.4447502784388167e-05 0.01977914590176738 0.04894242163316618 0.8039286236180953 -0.5868624111652763
 6.470816806742532e-05 3.691962574278843e-05 2.176694417821187e-05 2.2962278624314086e-05 0.8039286236180953 -0.5868624111652763 0.01977914590176738 0.04894242163316618
1371877551.0204082 0.01667000398826608 0.05154803757380363 0.8684449578982528 -0.4873006557213077 1.8636828157612595e-05 2.4510562431699505e-05 6.520328505661685e-05 3.690131394626073e-05
 0.8684449578982528 -0.4873006557213077 0.01667000398826608 0.05154803757380363 1.8636828157612595e-05 2.4510562431699505e-05 2.202947817566569e-05 2.30119873710575e-05
 1.8636828157612595e-05 2.4510562431699505e-05 1.8636828157612595e-05 2.4510562431699505e-05 0.019889722463937155 0.04905282717844809 0.8025594769588659 -0.5887375436823904
 6.517665328219901e-05 3.685052827285369e-05 2.202947817566569e-05 2.30119873710575e-05 0.8025594769588659 -0.5887375436823904 0.019889722463937155 0.04905282717844809
1376959183.6734693 0.01677317792385495 0.05169010038945345 0.867520939444617 -0.48893588999808285 1.888001157111663e-05 2.4571890312227376e-05 6.567267353915452e-05 3.683103186381117e-05
 0.867520939444617 -0.48893588999808285 0.01677317792385495 0.05169010038945345 1.888001157111663e-05 2.4571890312227376e-05 2.2293824284596998e-05 2.3059679083075987e-05
 1.888001157111663e-05 2.4571890312227376e-05 1.888001157111663e-05 2.4571890312227376e-05 0.020000342102093522 0.04916265396914424 0.8011857947357934 -0.5906100181475054
 6.564717828631677e-05 3.67792600186575e-05 2.2293824284596998e-05 2.3059679083075987e-05 0.8011857947357934 -0.5906100181475054 0.020000342102093522 0.04916265396914424
1382040816.3265305 0.01687654449721534 0.05183174547654951 0.8665937175360129 -0.49056973610983756 1.912513927448602e-05 2.463147027937226e-05 6.614411815005167e-05 3.6758555904129976e-05
 0.8665937175360129 -0.49056973610983756 0.01687654449721534 0.05183174547654951 1.912513927448602e-05 2.463147027937226e-05 2.255997331512981e-05 2.310533082389529e-05
 1.912513927448602e-05 2.463147027937226e-05 1.912513927448602e-05 2.463147027937226e-05 0.020111003292980167 0.0492719008096595 0.7998075675717329 -0.5924798214078595
 6.611975932037167e-05 3.670579981671239e-05 2.255997331512981e-05 2.310533082389529e-05 0.7998075675717329 -0.5924798214078595 0.020111003292980167 0.0492719008096595
1387122448.9795918 0.016980103301549327 0.05197297149033403 0.8656632838751579 -0.49220218629728263 1.9372207068244208e-05 2.468928639927863e-05 6.661763545964616e-05 3.6683864215214054e-05
 0.8656632838751579 -0.49220218629728263 0.016980103301549327 0.05197297149033403 1.9372207068244208e-05 2.468928639927863e-05 2.282791587094629e-05 2.3148919743248965e-05
 1.9372207068244208e-05 2.468928639927863e-05 1.9372207068244208e-05 2.468928639927863e-05 0.020221704487619722 0.0493805664719801 0.7984247861621219 -0.594346939947632
 6.65944126462723e-05 3.663012597425367e-05 2.282791587094629e-05 2.3148919743248965e-05 0.7984247861621219 -0.594346939947632 0.020221704487619722 0.0493805664719801
1392204081.632653 0.017083853909506452 0.05211377705452858 0.8647296302037007 -0.4938332325462815 1.9621210578270655e-05 2.474532295403787e-05 6.709324205521767e-05 3.660693440666947e-05
 0.8647296302037007 -0.4938332325462815 0.017083853909506452 0.05211377705452858 1.9621210578270655e-05 2.474532295403787e-05 2.3097642349691236e-05 2.31904230794273e-05
 1.9621210578270655e-05 2.474532295403787e-05 1.9621210578270655e-05 2.474532295403787e-05 0.020332444110387822 0.049488649695931176 0.7970374412817449 -0.5962113598874069
 6.707115454137223e-05 3.655221626314441e-05 2.3097642349691236e-05 2.31904230794273e-05 0.7970374412817449 -0.5962113598874069 0.020332444110387822 0.049488649695931176
1397285714.2857141 0.01718779587242381 0.05225416076136793 0.8637927483068195 -0.49546286658726174 1.987214525536129e-05 2.4799564444941247e-05 6.757095453508076e-05 3.6527743543495747e-05
 0.8637927483068195 -0.49546286658726174 0.01718779587242381 0.05225416076136793 1.987214525536129e-05 2.4799564444941247e-05 2.3369142943359876e-05 2.3229818161687556e-05
 1.987214525536129e-05 2.4799564444941247e-05 1.987214525536129e-05 2.4799564444941247e-05 0.020443220558086936 0.04959614918944942 0.7956455237915323 -0.5980730669836962
 6.755000129249571e-05 3.64720479137209e-05 2.3369142943359876e-05 2.3229818161687556e-05 0.7956455237915323 -0.5980730669836962 0.020443220558086936 0.04959614918944942
1402367346.9387753 0.017291928719565253 0.05239412117163897 0.8628526300178438 -0.49709107989466145 2.0125006374761495e-05 2.4851995595783312e-05 6.805078950257016e-05 3.644626813980927e-05
 0.8628526300178438 -0.49709107989466145 0.017291928719565253 0.05239412117163897 2.0125006374761495e-05 2.4851995595783312e-05 2.3642407638670027e-05 2.326708241272738e-05
 2.0125006374761495e-05 2.4851995595783312e-05 2.0125006374761495e-05 2.4851995595783312e-05 0.020554032199023037 0.04970306362886399 0.7942490246454039 -0.5999320466285224
 6.803096918985649e-05 3.638959760857791e-05 2.3642407638670027e-05 2.326708241272738e-05 0.7942490246454039 -0.5999320466285224 0.020554032199023037 0.04970306362886399
1407448979.5918367 0.01739625195735897 0.0525336568147305 0.8619092672229128 -0.49871786368641496 2.0379789035672634e-05 2.49026013562172e-05 6.85327635599153e-05 3.636248415250514e-05
 0.8619092672229128 -0.49871786368641496 0.01739625195735897 0.0525336568147305 2.0379789035672634e-05 2.49026013562172e-05 2.3917426217419795e-05 2.330219335122303e-05
 2.0379789035672634e-05 2.49026013562172e-05 2.0379789035672634e-05 2.49026013562172e-05 0.02066487737208083 0.04980939165919529 0.7928479348971489 -0.6017882838490631
 6.851407452086649e-05 3.630484147629336e-05 2.3917426217419795e-05 2.330219335122303e-05 0.7928479348971489 -0.6017882838490631 0.02066487737208083 0.04980939165919529
1412530612.2448978 0.01750076506863575 0.052672766188688186 0.8609626518656622 -0.5003432089234775 2.0636488160732957e-05 2.49513669051628e-05 6.90168933020006e-05 3.6276366974857325e-05
 0.8609626518656622 -0.5003432089234775 0.01750076506863575 0.052672766188688186 2.0636488160732957e-05 2.49513669051628e-05 2.4194188256831987e-05 2.333512859443412e-05
 2.0636488160732957e-05 2.49513669051628e-05 2.0636488160732957e-05 2.49513669051628e-05 0.02077575438580089 0.04991513189446073 0.791442245707347 -0.6036417633073577
 6.899933356383148e-05 3.62177550850921e-05 2.4194188256831987e-05 2.333512859443412e-05 0.791442245707347 -0.6036417633073577 0.02077575438580089 0.04991513189446073
1417612244.897959 0.017605467511865532 0.05281144776028024 0.8600127759519411 -0.5019671063093876 2.0895098495473566e-05 2.4998277654268396e-05 6.950319531000835e-05 3.6187891430055997e-05
 0.8600127759519411 -0.5019671063093876 0.017605467511865532 0.05281144776028024 2.0895098495473566e-05 2.4998277654268396e-05 2.447268312988654e-05 2.3365865860876624e-05
 2.0895098495473566e-05 2.4998277654268396e-05 2.0895098495473566e-05 2.4998277654268396e-05 0.020886661517457893 0.05002028291799849 0.7900319483503341 -0.605492469300077
 6.948676258152946e-05 3.612831343644774e-05 2.447268312988654e-05 2.3365865860876624e-05 0.7900319483503341 -0.605492469300077 0.020886661517457893 0.05002028291799849
1422693877.5510204 0.01771035872039336 0.052949699965070596 0.8590596315545646 -0.5035895462898738 2.1155614607750557e-05 2.50433192514271e-05 6.999168614494089e-05 3.6097031764682624e-05
 0.8590596315545646 -0.5035895462898738 0.01771035872039336 0.052949699965070596 2.1155614607750557e-05 2.50433192514271e-05 2.475290000564219e-05 2.3394382973065936e-05
 2.1155614607750557e-05 2.50433192514271e-05 2.1155614607750557e-05 2.50433192514271e-05 0.020997597012137607 0.05012484328280281 0.7886170342212065 -0.6073403857583587
 6.997637781466978e-05 3.603649095862309e-05 2.475290000564219e-05 2.3394382973065936e-05 0.7886170342212065 -0.6073403857583587 0.020997597012137607 0.05012484328280281
1427775510.2040815 0.017815438101675622 0.05308752120750093 0.8581032108180989 -0.505210519052499 2.1418030887153675e-05 2.5086477584348726e-05 7.048238234101789e-05 3.600376164212161e-05
 0.8581032108180989 -0.505210519052499 0.017815438101675622 0.05308752120750093 2.1418030887153675e-05 2.5086477584348726e-05 2.5034827849548503e-05 2.3420657860331537e-05
 2.1418030887153675e-05 2.5086477584348726e-05 2.1418030887153675e-05 2.5086477584348726e-05 0.02110855908181793 0.050228811511870565 0.7871974948428774 -0.6091854962477101
 7.046819547522794e-05 3.594226150014814e-05 2.5034827849548503e-05 2.3420657860331537e-05 0.7871974948428774 -0.6091854962477101 0.02110855908181793 0.050228811511870565
1432857142.8571427 0.017920705036512594 0.05322490986098189 0.8571435059636813 -0.50683001452635 2.168234154439319e-05 2.512773878418815e-05 7.097530039894653e-05 3.590805413590868e-05
 0.8571435059636813 -0.50683001452635 0.017920705036512594 0.05322490986098189 2.168234154439319e-05 2.512773878418815e-05 2.5318455423749986e-05 2.3444668561705198e-05
 2.168234154439319e-05 2.512773878418815e-05 2.168234154439319e-05 2.512773878418815e-05 0.02121954590444615 0.050332186098564456 0.7857733218731686 -0.6110277839679795
 7.0962231739654e-05 3.584559832323559e-05 2.5318455423749986e-05 2.3444668561705198e-05 0.7857733218731686 -0.6110277839679795 0.02121954590444615 0.050332186098564456
1437938775.510204 0.0180261588782843 0.05336186426799322 0.8561805092938723 -0.5084480223817691 2.1948540610665284e-05 2.516708922923078e-05 7.147045677905964e-05 3.580988172301582e-05
 0.8561805092938723 -0.5084480223817691 0.0180261588782843 0.05336186426799322 2.1948540610665284e-05 2.516708922923078e-05 2.5603771287383166e-05 2.3466393228884366e-05
 2.1948540610665284e-05 2.516708922923078e-05 2.1948540610665284e-05 2.516708922923078e-05 0.02133055562302105 0.050434965506989136 0.7843445071119554 -0.6128672317533952
 7.145850274195005e-05 3.574647409713362e-05 2.5603771287383166e-05 2.3466393228884366e-05 0.7843445071119554 -0.6128672317533952 0.02133055562302105 0.050434965506989136
1443020408.1632652 0.018131798952180967 0.05349838274019282 0.8552142131975499 -0.5100645320301348 2.2216621936997195e-05 2.5204515548636213e-05 7.196786789431884e-05 3.570921627707221e-05
 0.8552142131975499 -0.5100645320301348 0.018131798952180967 0.05349838274019282 2.2216621936997195e-05 2.5204515548636213e-05 2.5890763796868358e-05 2.348581012927248e-05
 2.2216621936997195e-05 2.5204515548636213e-05 2.2216621936997195e-05 2.5204515548636213e-05 0.021441586344672876 0.05053714817237987 0.782911042508359 -0.6147038220726787
 7.195702456661367e-05 3.564486089141597e-05 2.5890763796868358e-05 2.348581012927248e-05 0.782911042508359 -0.6147038220726787 0.021441586344672876 0.05053714817237987
1448102040.8163264 0.01823762455443541 0.0536344635585355 0.8542446101548331 -0.5116795326236817 2.248657919357309e-05 2.5240004626240633e-05 7.246755010317926e-05 3.560602906152145e-05
 0.8542446101548331 -0.5116795326236817 0.01823762455443541 0.0536344635585355 2.248657919357309e-05 2.5240004626240633e-05 2.6179421106197382e-05 2.350289764909786e-05
 2.248657919357309e-05 2.5240004626240633e-05 2.248657919357309e-05 2.5240004626240633e-05 0.021552636139744924 0.05063873250150692 0.7814729201679812 -0.6165375370292308
 7.245781324144332e-05 3.554073016920881e-05 2.6179421106197382e-05 2.350289764909786e-05 0.7814729201679812 -0.6165375370292308 0.021552636139744924 0.05063873250150692
1453183673.4693878 0.01834363495155443 0.053770104973403246 0.8532716927420497 -0.5132930130553744 2.2758405869041857e-05 2.5273543604418858e-05 7.296951970231116e-05 3.550029072271461e-05
 0.8532716927420497 -0.5132930130553744 0.01834363495155443 0.053770104973403246 2.2758405869041857e-05 2.5273543604418858e-05 2.64697311672188e-05 2.3517634296613214e-05
 2.2758405869041857e-05 2.5273543604418858e-05 2.2758405869041857e-05 2.5273543604418858e-05 0.021663703040876996 0.050739716873094955 0.780030132360193 -0.6183683583613906
 7.296088473020237e-05 3.543405278035451e-05 2.64697311672188e-05 2.3517634296613214e-05 0.780030132360193 -0.6183683583613906 0.021663703040876996 0.050739716873094955
1458265306.122449 0.01844982937954713 0.05390530520474173 0.852295453636739 -0.5149049619588276 2.3032095269807538e-05 2.53051198880067e-05 7.347379291917538e-05 3.539197128293968e-05
 0.852295453636739 -0.5149049619588276 0.01844982937954713 0.05390530520474173 2.3032095269807538e-05 2.53051198880067e-05 2.676168172992188e-05 2.3529998705377096e-05
 2.3032095269807538e-05 2.53051198880067e-05 2.3032095269807538e-05 2.53051198880067e-05 0.021774785042085704 0.0508400996382558 0.7785826715254749 -0.6201962674427766
 7.346625492513729e-05 3.5324798954512625e-05 2.676168172992188e-05 2.3529998705377096e-05 0.7785826715254749 -0.6201962674427766 0.021774785042085704 0.0508400996382558
1463346938.77551 0.01855620704315506 0.054040062442210525 0.8513158856226924 -0.5165153677082754 2.3307640519304014e-05 2.5334721148284333e-05 7.39803859044487e-05 3.528104013338652e-05
 0.8513158856226924 -0.5165153677082754 0.01855620704315506 0.054040062442210525 2.3307640519304014e-05 2.5334721148284333e-05 2.7055260342721354e-05 2.3539969637619437e-05
 2.3307640519304014e-05 2.5334721148284333e-05 2.3307640519304014e-05 2.5334721148284333e-05 0.021885880097851397 0.05093987912093646 0.7771305302828001 -0.6220212452827015
 7.397393963934697e-05 3.521293829419742e-05 2.7055260342721354e-05 2.3539969637619437e-05 0.7771305302828001 -0.6220212452827015 0.021885880097851397 0.05093987912093646
1468428571.4285712 0.018662767115079165 0.05417437484534101 0.8503329815950373 -0.5181242184185941 2.358503455725474e-05 2.536233532702123e-05 7.448931472429473e-05 3.5167466027048444e-05
 0.8503329815950373 -0.5181242184185941 0.018662767115079165 0.05417437484534101 2.358503455725474e-05 2.536233532702123e-05 2.735045435274407e-05 2.3547525987692614e-05
 2.358503455725474e-05 2.536233532702123e-05 2.358503455725474e-05 2.536233532702123e-05 0.021996986122200128 0.05103905361838267 0.7756737014370793 -0.6238432725266727
 7.448395459899864e-05 3.509843976775265e-05 2.735045435274407e-05 2.3547525987692614e-05 0.7756737014370793 -0.6238432725266727 0.021996986122200128 0.05103905361838267
1473510204.0816326 0.01876950873520592 0.05430824054370874 0.8493467345653581 -0.5197315019453762 2.3864270138918735e-05 2.5387950640583484e-05 7.500059535247647e-05 3.505121707155994e-05
 0.8493467345653581 -0.5197315019453762 0.01876950873520592 0.05430824054370874 2.3864270138918735e-05 2.5387950640583484e-05 2.7647250906119172e-05 2.355264678561004e-05
 2.3864270138918735e-05 2.5387950640583484e-05 2.3864270138918735e-05 2.5387950640583484e-05 0.022108100987789772 0.05113762140161897 0.7742121779866494 -0.625662329456974
 7.499631543538625e-05 3.4981271702263636e-05 2.7647250906119172e-05 2.355264678561004e-05 0.7742121779866494 -0.625662329456974 0.022108100987789772 0.05113762140161897
1478591836.7346938 0.018876431009835097 0.05444165763711044 0.8483571376668603 -0.5213372058850612 2.4145339834324313e-05 2.54115555841039e-05 7.551424366230661e-05 3.493226072197087e-05
 0.8483571376668603 -0.5213372058850612 0.018876431009835097 0.05444165763711044 2.4145339834324313e-05 2.54115555841039e-05 2.7945636948273694e-05 2.355531120067382e-05
 2.4145339834324313e-05 2.54115555841039e-05 2.4145339834324313e-05 2.54115555841039e-05 0.022219222524996116 0.05123558071594165 0.7727459531308227 -0.627478395993332
 7.551103767682817e-05 3.4861401776406656e-05 2.7945636948273694e-05 2.355531120067382e-05 0.7727459531308227 -0.627478395993332 0.022219222524996116 0.05123558071594165
1483673469.387755 0.018983533010901436 0.054574624195759744 0.8473641841595773 -0.5229413175751207 2.4428236027491738e-05 2.5433138935715524e-05 7.60302754184316e-05 3.4810563773457694e-05
 0.8473641841595773 -0.5229413175751207 0.018983533010901436 0.054574624195759744 2.4428236027491738e-05 2.5433138935715524e-05 2.8245599224235313e-05 2.3555498545193383e-05
 2.4428236027491738e-05 2.5433138935715524e-05 2.4428236027491738e-05 2.5433138935715524e-05 0.022330348520998886 0.05133292978143223 0.7712750202774836 -0.6292914516936747
 7.602813674039904e-05 3.473879701323602e-05 2.8245599224235313e-05 2.3555498545193383e-05 0.7712750202774836 -0.6292914516936747 0.022330348520998886 0.05133292978143223
1488755102.0408163 0.019090813775200843 0.054707138260487904 0.8463678674356148 -0.5245438240943022 2.471295091564588e-05 2.545268976084901e-05 7.654870626844447e-05 3.4686092353971855e-05
 0.8463678674356148 -0.5245438240943022 0.019090813775200843 0.054707138260487904 2.471295091564588e-05 2.545268976084901e-05 2.854712427894352e-05 2.3553188278296795e-05
 2.471295091564588e-05 2.545268976084901e-05 2.471295091564588e-05 2.545268976084901e-05 0.022441476718870906 0.05142966679348211 0.7697993730507448 -0.6311014757549762
 7.654762792349216e-05 3.46134237729096e-05 2.854712427894352e-05 2.3553188278296795e-05 0.7697993730507448 -0.6311014757549762 0.022441476718870906 0.05142966679348211
1493836734.6938775 0.019198272303613203 0.054839197842959604 0.8453681810244461 -0.5261447122629325 2.4999476508420638e-05 2.5470197416594362e-05 7.706955173432304e-05 3.4558811916825584e-05
 0.8453681810244461 -0.5261447122629325 0.019198272303613203 0.054839197842959604 2.4999476508420638e-05 2.5470197416594362e-05 2.8850198457571415e-05 2.3548360009836353e-05
 2.4999476508420638e-05 2.5470197416594362e-05 2.4999476508420638e-05 2.5470197416594362e-05 0.022552604816665624 0.051525789923338325 0.7683190052986583 -0.6329084470141954
 7.706952639520809e-05 3.448524774535234e-05 2.8850198457571415e-05 2.3548360009836353e-05 0.7683190052986583 -0.6329084470141954 0.022552604816665624 0.051525789923338325
1498918367.3469386 0.019305907560322296 0.05497080092590109 0.8443651185982431 -0.5277439686432813 2.5287804627056237e-05 2.548565155612739e-05 7.759282720368868e-05 3.4428687233216274e-05
 0.8443651185982431 -0.5277439686432813 0.019305907560322296 0.05497080092590109 2.5287804627056237e-05 2.548565155612739e-05 2.9154807905859904e-05 2.354099350439049e-05
 2.5287804627056237e-05 2.548565155612739e-05 2.5287804627056237e-05 2.548565155612739e-05 0.022663730466507118 0.05162129731866452 0.7668339111009796 -0.6347123439493114
 7.759384718756506e-05 3.435423394285933e-05 2.9154807905859904e-05 2.354099350439049e-05 0.7668339111009796 -0.6347123439493114 0.022663730466507118 0.05162129731866452
1504000000.0 0.0194137184720394 0.05510194546333773 0.8433586739772576 -0.5293415795399904 2.5577926903591183e-05 2.5499042133201426e-05 7.811854792088152e-05 3.42956823846893e-05
 0.8433586739772576 -0.5293415795399904 0.0194137184720394 0.05510194546333773 2.5577926903591183e-05 2.5499042133201426e-05 2.9460938570466114e-05 2.353106868536349e-05
 2.5577926903591183e-05 2.5499042133201426e-05 2.5577926903591183e-05 2.5499042133201426e-05 0.022774851273682964 0.05171618710411768 0.7653440847769921 -0.6365131446804564
 7.812060518652704e-05 3.422034669263824e-05 2.9460938570466114e-05 2.353106868536349e-05 0.7653440847769921 -0.6365131446804564 0.022774851273682964 0.05171618710411768
1509081632.6530612 0.01952170392722089 0.05523262938084735 0.8423488411352442 -0.5309375310005633 2.586983478004974e-05 2.551035940670424e-05 7.864672897784664e-05 3.4159760755540245e-05
 0.8423488411352442 -0.5309375310005633 0.01952170392722089 0.05523262938084735 2.586983478004974e-05 2.551035940670424e-05 2.976857619932747e-05 2.351856563918485e-05
 2.586983478004974e-05 2.551035940670424e-05 2.586983478004974e-05 2.551035940670424e-05 0.02288596479573205 0.05181045738194597 0.7638495208933873 -0.6383108269711469
 7.864981512284426e-05 3.4083549629292056e-05 2.976857619932747e-05 2.351856563918485e-05 0.7638495208933873 -0.6383108269711469 0.02288596479573205 0.05181045738194597
1514163265.3061223 0.019629862775288998 0.055362850575823956 0.8413356142049291 -0.5325318088159289 2.6163519507627536e-05 2.551959394528101e-05 7.917738530482867e-05 3.402088502515749e-05
 0.8413356142049291 -0.5325318088159289 0.019629862775288998 0.055362850575823956 2.6163519507627536e-05 2.551959394528101e-05 3.0077706342044533e-05 2.3503464619610037e-05
 2.6163519507627536e-05 2.551959394528101e-05 2.6163519507627536e-05 2.551959394528101e-05 0.022997068541543764 0.051904106232600465 0.7623502142722016 -0.6401053682296237
 7.918149156270313e-05 3.394380568724292e-05 3.0077706342044533e-05 2.3503464619610037e-05 0.7623502142722016 -0.6401053682296237 0.022997068541543764 0.051904106232600465
1519244897.9591835 0.01973819382585073 0.05549260691775677 0.8403189874835272 -0.534124398521067 2.6458972145875908e-05 2.5526736632022967e-05 7.971053166086806e-05 3.3879017160305436e-05
 0.8403189874835272 -0.534124398521067 0.01973819382585073 0.05549260691775677 2.6458972145875908e-05 2.5526736632022967e-05 3.0388314350283435e-05 2.348574605212431e-05
 2.6458972145875908e-05 2.5526736632022967e-05 2.6458972145875908e-05 2.5526736632022967e-05 0.02310815997044906 0.05199713171536901 0.7608461599988134 -0.641896745510293
 7.971564889817957e-05 3.380107709309771e-05 3.0388314350283435e-05 2.348574605212431e-05 0.7608461599988134 -0.641896745510293 0.02310815997044906 0.05199713171536901
1524326530.6122448 0.019846695847914455 0.05562189624852114 0.8392989554383004 -0.5357152853957073 2.6756183561887078e-05 2.5531778669222258e-05 8.024618262409546e-05 3.373411840734994e-05
 0.8392989554383004 -0.5357152853957073 0.019846695847914455 0.05562189624852114 2.6756183561887078e-05 2.5531778669222258e-05 3.0700385378200435e-05 2.346539053845137e-05
 2.6756183561887078e-05 2.5531778669222258e-05 2.6756183561887078e-05 2.5531778669222258e-05 0.02321923649131787 0.0520895318690261 0.759337353429999 -0.6436849355152789
 8.025230133749135e-05 3.365532535795636e-05 3.0700385378200435e-05 2.346539053845137e-05 0.759337353429999 -0.6436849355152789 0.02321923649131787 0.0520895318690261
1529408163.265306 0.019955367569107565 0.05575071638268322 0.8382755127121699 -0.5373044544651037 2.7055144429482057e-05 2.5534711583193133e-05 8.078435258181938e-05 3.358614928442636e-05
 0.8382755127121699 -0.5373044544651037 0.019955367569107565 0.05575071638268322 2.7055144429482057e-05 2.5534711583193133e-05 3.101390438289092e-05 2.3442378861168552e-05
 2.7055144429482057e-05 2.5534711583193133e-05 2.7055144429482057e-05 2.5534711583193133e-05 0.02333029546165757 0.05218130471250164 0.757823790202044 -0.6454699145960896
 8.079146289504584e-05 3.3506511269664064e-05 3.101390438289092e-05 2.3442378861168552e-05 0.757823790202044 -0.6454699145960896 0.02333029546165757 0.05218130471250164
1534489795.9183671 0.020064207674893624 0.05587906510782099 0.837248654129367 -0.5388918905008806 2.7355845228402715e-05 2.5535527229159323e-05 8.132505572040214e-05 3.3435069573551734e-05
 0.837248654129367 -0.5388918905008806 0.020064207674893624 0.05587906510782099 2.7355845228402715e-05 2.5535527229159323e-05 3.132885612486475e-05 2.3416691988430252e-05
 2.7355845228402715e-05 2.5535527229159323e-05 2.7355845228402715e-05 2.5535527229159323e-05 0.02344133418671376 0.05227244824557177 0.7563054662389194 -0.647251658755397
 8.133314738127675e-05 3.335459488500805e-05 3.132885612486475e-05 2.3416691988430252e-05 0.7563054662389194 -0.647251658755397 0.02344133418671376 0.05227244824557177
1539571428.5714285 0.02017321480778716 0.0560069401848569 0.8362183747011397 -0.5404775780219596 2.7658276243510033e-05 2.553421779620776e-05 8.186830601491912e-05 3.3280838312681954e-05
 0.8362183747011397 -0.5404775780219596 0.02017321480778716 0.0560069401848569 2.7658276243510033e-05 2.553421779620776e-05 3.1645225168550166e-05 2.3388311078801275e-05
 2.7658276243510033e-05 2.553421779620776e-05 2.7658276243510033e-05 2.553421779620776e-05 0.023552349918570893 0.05236296044956588 0.7547823777605125 -0.6490301436489375
 8.18773683922665e-05 3.319953552186051e-05 3.1645225168550166e-05 2.3388311078801275e-05 0.7547823777605125 -0.6490301436489375 0.023552349918570893 0.05236296044956588
1544653061.2244897 0.020282387566571324 0.05613433934840802 0.8351846696315036 -0.5420615012955631 2.7962427563990524e-05 2.5530775812308667e-05 8.24141172185965e-05 3.312341378771555e-05
 0.8351846696315036 -0.5420615012955631 0.020282387566571324 0.05613433934840802 2.7962427563990524e-05 2.5530775812308667e-05 3.196299588282866e-05 2.3357217486201805e-05
 2.7962427563990524e-05 2.5530775812308667e-05 2.7962427563990524e-05 2.5530775812308667e-05 0.023663339855257346 0.05245283928809628 0.7532545212909207 -0.6508053445875316
 8.2424139299148e-05 3.304129175126882e-05 3.196299588282866e-05 2.3357217486201805e-05 0.7532545212909207 -0.6508053445875316 0.023663339855257346 0.05245283928809628
1549734693.8775508 0.020391724505510512 0.05626126030714818 0.8341475343230382 -0.5436436443383025 2.8268289082572412e-05 2.552519414940154e-05 8.296250285202262e-05 3.296275352444507e-05
 0.8341475343230382 -0.5436436443383025 0.020391724505510512 0.05626126030714818 2.8268289082572412e-05 2.552519414940154e-05 3.228215244160306e-05 2.3323392764965703e-05
 2.8268289082572412e-05 2.552519414940154e-05 2.8268289082572412e-05 2.552519414940154e-05 0.02377430113985053 0.052542082707806186 0.7517218936668053 -0.6525772365392332
 8.297347323728206e-05 3.28798213894941e-05 3.228215244160306e-05 2.3323392764965703e-05 0.7517218936668053 -0.6525772365392332 0.02377430113985053 0.052542082707806186
1554816326.5306122 0.020501224133567992 0.05638770074419129 0.8331069643827378 -0.5452239909173496 2.8575850494754155e-05 2.5517466028547336e-05 8.35134761921274e-05 3.2798814280457935e-05
 0.8331069643827378 -0.5452239909173496 0.020501224133567992 0.05638770074419129 2.8575850494754155e-05 2.5517466028547336e-05 3.260267882440125e-05 2.3286818675013625e-05
 2.8575850494754155e-05 2.5517466028547336e-05 2.8575850494754155e-05 2.5517466028547336e-05 0.023885230859587447 0.052630688639142165 0.7501844920458016 -0.654345794131603
 8.352538309520462e-05 3.271508149000029e-05 3.260267882440125e-05 2.3286818675013625e-05 0.7501844920458016 -0.654345794131603 0.023885230859587447 0.052630688639142165
1559897959.1836734 0.020610884913620148 0.05651365831748314 0.8320629556279068 -0.5468025245516959 2.8885101298046752e-05 2.550758502514625e-05 8.406705026092462e-05 3.263155203698794e-05
 0.8320629556279068 -0.5468025245516959 0.020610884913620148 0.05651365831748314 2.8885101298046752e-05 2.550758502514625e-05 3.292455881701779e-05 2.3247477187142874e-05
 2.8885101298046752e-05 2.550758502514625e-05 2.8885101298046752e-05 2.550758502514625e-05 0.023996126044975422 0.05271865499714199 0.7486423139149931 -0.6561109916541183
 8.407988150333835e-05 3.2547028335394576e-05 3.292455881701779e-05 2.3247477187142874e-05 0.7486423139149931 -0.6561109916541183 0.023996126044975422 0.05271865499714199
1564979591.8367345 0.020720705261669022 0.05663913066021514 0.8310155040921038 -0.5483792285135013 2.9196030791232634e-05 2.5495545074220798e-05 8.462323781401317e-05 3.246092199071976e-05
 0.8310155040921038 -0.5483792285135013 0.020720705261669022 0.05663913066021514 2.9196030791232634e-05 2.5495545074220798e-05 3.3247776012196534e-05 2.3205350488435416e-05
 2.9196030791232634e-05 2.5495545074220798e-05 2.9196030791232634e-05 2.5495545074220798e-05 0.024106983668905527 0.05280597968224946 0.7470953570994461 -0.6578728030607194
 8.463698082246487e-05 3.237561742932129e-05 3.3247776012196534e-05 2.3205350488435416e-05 0.7470953570994461 -0.6578728030607194 0.024106983668905527 0.05280597968224946
1570061224.489796 0.020830683546061556 0.056764115381255004 0.829964606031138 -0.5499540858295356 2.9508628073643034e-05 2.5481340475764114e-05 8.518205132882959e-05 3.2286878545547234e-05
 0.829964606031138 -0.5499540858295356 0.020830683546061556 0.056764115381255004 2.9508628073643034e-05 2.5481340475764114e-05 3.357231381035598e-05 2.3160420987785568e-05
 2.9508628073643034e-05 2.5481340475764114e-05 2.9508628073643034e-05 2.5481340475764114e-05 0.02421780064577054 0.0528926605811499 0.7455436197707981 -0.6596312019724916
 8.519669313195102e-05 3.220080348831098e-05 3.357231381035598e-05 2.3160420987785568e-05 0.7455436197707981 -0.6596312019724916 0.02421780064577054 0.0528926605811499
1575142857.142857 0.020940818086701878 0.05688861006558942 0.8289102579291105 -0.5515270792827143 2.982288204445577e-05 2.5464965900152483e-05 8.57435029926484e-05 3.210937530428861e-05
 0.8289102579291105 -0.5515270792827143 0.020940818086701878 0.05688861006558942 2.982288204445577e-05 2.5464965900152483e-05 3.3898155420360575e-05 2.3112671321549388e-05
 2.982288204445577e-05 2.5464965900152483e-05 2.982288204445577e-05 2.5464965900152483e-05 0.02432857383058642 0.05297869556762526 0.743987100455915 -0.6613861616804956
 8.575903021772371e-05 3.2022540433586594e-05 3.3898155420360575e-05 2.3112671321549388e-05 0.743987100455915 -0.6613861616804956 0.02432857383058642 0.05297869556762526
1580224489.7959182 0.021051107154267966 0.05701261227479047 0.8278524565045092 -0.553098191413732 3.0138781402016756e-05 2.5446416393622114e-05 8.630760469032436e-05 3.192836506035969e-05
 0.8278524565045092 -0.553098191413732 0.021051107154267966 0.05701261227479047 3.0138781402016756e-05 2.5446416393622114e-05 3.422528386034055e-05 2.306208435931669e-05
 3.0138781402016756e-05 2.5446416393622114e-05 3.0138781402016756e-05 2.5446416393622114e-05 0.02443930001811508 0.05306408250343635 0.7424257980455988 -0.6631376551487435
 8.63240035599894e-05 3.184078138282873e-05 3.422528386034055e-05 2.306208435931669e-05 0.7424257980455988 -0.6631376551487435 0.02443930001811508 0.05306408250343635
1585306122.4489794 0.021161548969428425 0.057136119547495756 0.8267911987163484 -0.5546674045227992 3.0456314643186757e-05 2.5425687383809067e-05 8.68743679917706e-05 3.1743799789407896e-05
 0.8267911987163484 -0.5546674045227992 0.021161548969428425 0.057136119547495756 3.0456314643186757e-05 2.5425687383809067e-05 3.455368195856298e-05 2.300864320980781e-05
 3.0456314643186757e-05 2.5425687383809067e-05 3.0456314643186757e-05 2.5425687383809067e-05 0.024549975941993617 0.05314881923922528 0.7408597118033596 -0.6648856550173275
 8.689162432069134e-05 3.1655478641902156e-05 3.455368195856298e-05 2.300864320980781e-05 0.7408597118033596 -0.6648856550173275 0.024549975941993617 0.05314881923922528
1590387755.1020408 0.021272141702058142 0.05725912939990898 0.8257264817703589 -0.5562347006714778 3.077547006271638e-05 2.5402774685351805e-05 8.744380413916744e-05 3.155563064090888e-05
 0.8257264817703589 -0.5562347006714778 0.021272141702058142 0.05725912939990898 3.077547006271638e-05 2.5402774685351805e-05 3.488333235435693e-05 2.2952331226896286e-05
 3.077547006271638e-05 2.5402774685351805e-05 3.077547006271638e-05 2.5402774685351805e-05 0.024660598273863413 0.05323290361544241 0.7392888413742457 -0.6666301336057042
 8.746190333069962e-05 3.146658369654589e-05 3.488333235435693e-05 2.2952331226896286e-05 0.7392888413742457 -0.6666301336057042 0.024660598273863413 0.05323290361544241
1595469387.755102 0.021382883470458115 0.05738163932631914 0.8246583031252318 -0.5578000616846293 3.1096235752651865e-05 2.5377674505555885e-05 8.801592403389618e-05 3.1363807929728766e-05
 0.8246583031252318 -0.5578000616846293 0.021382883470458115 0.05738163932631914 3.1096235752651865e-05 2.5377674505555885e-05 3.521421749909561e-05 2.289313201575904e-05
 3.1096235752651865e-05 2.5377674505555885e-05 3.1096235752651865e-05 2.5377674505555885e-05 0.024771163622511104 0.053316333463299094 0.7377131867937291 -0.6683710629161401
 8.803485107672845e-05 3.127404720402951e-05 3.521421749909561e-05 2.289313201575904e-05 0.7377131867937291 -0.6683710629161401 0.024771163622511104 0.053316333463299094
1600551020.408163 0.02149377234057283 0.05750364679963816 0.8235866604989006 -0.5593634691524659 3.141859960177419e-05 2.535038345011903e-05 8.859073822319219e-05 3.1168281127653936e-05
 0.8235866604989006 -0.5593634691524659 0.02149377234057283 0.05750364679963816 3.141859960177419e-05 2.535038345011903e-05 3.5546319657238553e-05 2.2831029439155475e-05
 3.141859960177419e-05 2.535038345011903e-05 3.141859960177419e-05 2.535038345011903e-05 0.02488166853300463 0.05339910660574215 0.7361327484966489 -0.6701084146373182
 8.861047768797494e-05 3.10778189847774e-05 3.5546319657238553e-05 2.2831029439155475e-05 0.7361327484966489 -0.6701084146373182 0.02488166853300463 0.05339910660574215
1605632653.0612245 0.021604806325211504 0.05762514927195896 0.8225115518748832 -0.5609249044327209 3.174254929507452e-05 2.5320898528916735e-05 8.916825688651145e-05 3.0968998854891836e-05
 0.8225115518748832 -0.5609249044327209 0.021604806325211504 0.05762514927195896 3.174254929507452e-05 2.5320898528916735e-05 3.587962090743682e-05 2.2766007623837087e-05
 3.174254929507452e-05 2.5320898528916735e-05 3.174254929507452e-05 2.5320898528916735e-05 0.02499210948584176 0.05348122085845598 0.7345475273262155 -0.6718421601481195
 8.91887929224737e-05 3.087784801396503e-05 3.587962090743682e-05 2.2766007623837087e-05 0.7345475273262155 -0.6718421601481195 0.02499210948584176 0.05348122085845598
1610714285.7142856 0.021715983383269463 0.05774614417513426 0.8214329755086639 -0.5624843486529302 3.206807231326849e-05 2.5289217161846388e-05 8.974848982160428e-05 3.076590887154495e-05
 0.8214329755086639 -0.5624843486529302 0.021715983383269463 0.05774614417513426 3.206807231326849e-05 2.5289217161846388e-05 3.6214103143704246e-05 2.269805096708871e-05
 3.206807231326849e-05 2.5289217161846388e-05 3.206807231326849e-05 2.5289217161846388e-05 0.0251024828960999 0.05356267403088857 0.7329575245430646 -0.6735722705215745
 8.976980615316118e-05 3.067408241308873e-05 3.6214103143704246e-05 2.269805096708871e-05 0.7329575245430646 -0.6735722705215745 0.0251024828960999 0.05356267403088857
1615795918.3673468 0.02182730141895191 0.0578666289213744 0.8203509299341272 -0.564041782712836 3.2395155932352667e-05 2.525533718472912e-05 9.033144643029137e-05 3.0558958069061254e-05
 0.8203509299341272 -0.564041782712836 0.02182730141895191 0.0578666289213744 3.2395155932352667e-05 2.525533718472912e-05 3.654974807665825e-05 2.2627144143402823e-05
 3.2395155932352667e-05 2.525533718472912e-05 3.2395155932352667e-05 2.525533718472912e-05 0.025212785112593263 0.05364346392730364 0.7313627418343694 -0.6752987165289907
 9.035352635364456e-05 3.0466469441512684e-05 3.654974807665825e-05 2.2627144143402823e-05 0.7313627418343694 -0.6752987165289907 0.025212785112593263 0.05364346392730364
1620877551.0204082 0.021938758280999497 0.05798660090386926 0.8192654139700365 -0.5655971872869121 3.272378722320598e-05 2.52192568552682e-05 9.091713570393486e-05 3.034809246166469e-05
 0.8192654139700365 -0.5655971872869121 0.021938758280999497 0.05798660090386926 3.272378722320598e-05 2.52192568552682e-05 3.688653723483322e-05 2.2553272111288474e-05
 3.272378722320598e-05 2.52192568552682e-05 3.272378722320598e-05 2.52192568552682e-05 0.025323012417034142 0.053723588347862596 0.7297631813230048 -0.6770214686442686
 9.093996208366866e-05 3.025495548799624e-05 3.688653723483322e-05 2.2553272111288474e-05 0.7297631813230048 -0.6770214686442686 0.025323012417034142 0.053723588347862596
1625959183.6734693 0.022050351761915932 0.058106057497427706 0.8181764267265633 -0.5671505428270139 3.30539530512392e-05 2.5180974859062313e-05 9.150556620859912e-05 3.013325717776809e-05
 0.8181764267265633 -0.5671505428270139 0.022050351761915932 0.058106057497427706 3.30539530512392e-05 2.5180974859062313e-05 3.7224451966069715e-05 2.247642012021568e-05
 3.30539530512392e-05 2.5180974859062313e-05 3.30539530512392e-05 2.5180974859062313e-05 0.025433161023203508 0.053803045089726026 0.7281588455767665 -0.6787404970484009
 9.152912147427489e-05 3.0039486062204752e-05 3.7224451966069715e-05 2.247642012021568e-05 0.7281588455767665 -0.6787404970484009 0.025433161023203508 0.053803045089726026
1631040816.3265305 0.022162079597197827 0.058224996059142824 0.8170839676118564 -0.5687018295651619 3.3385640076095885e-05 2.514049031567231e-05 9.209674606989523e-05 2.9914396451373143e-05
 0.8170839676118564 -0.5687018295651619 0.022162079597197827 0.058224996059142824 3.3385640076095885e-05 2.514049031567231e-05 3.7563473438983404e-05 2.2396573717696835e-05
 3.3385640076095885e-05 2.514049031567231e-05 3.3385640076095885e-05 2.514049031567231e-05 0.025543227076124223 0.05388183194819076 0.7265497376176385 -0.680455771634167
 9.212101221264696e-05 2.982000578620705e-05 3.7563473438983404e-05 2.2396573717696835e-05 0.7265497376176385 -0.680455771634167 0.025543227076124223 0.05388183194819076
1636122448.9795918 0.02227393946456851 0.05834341392907791 0.8159880363386638 -0.5702510275164536 3.371883475140796e-05 2.50978027847399e-05 9.269068295750253e-05 2.9691453613460153e-05
 0.8159880363386638 -0.5702510275164536 0.02227393946456851 0.05834341392907791 3.371883475140796e-05 2.50978027847399e-05 3.7903582644516746e-05 2.2313718756506107e-05
 3.371883475140796e-05 2.50978027847399e-05 3.371883475140796e-05 2.50978027847399e-05 0.025653206651244646 0.053959946717849955 0.7249358609311138 -0.6821672620110228
 9.271564152663608e-05 2.9596458385963995e-05 3.7903582644516746e-05 2.2313718756506107e-05 0.7249358609311138 -0.6821672620110228 0.025653206651244646 0.053959946717849955
1641204081.632653 0.02238592898321334 0.058461308430976085 0.8148886329309944 -0.5717981164821159 3.405352332460941e-05 2.5052912272156465e-05 9.328738406936114e-05 2.9464371083372002e-05
 0.8148886329309944 -0.5717981164821159 0.02238592898321334 0.058461308430976085 3.405352332460941e-05 2.5052912272156465e-05 3.824476039757739e-05 2.222784140203821e-05
 3.405352332460941e-05 2.5052912272156465e-05 3.405352332460941e-05 2.5052912272156465e-05 0.02576309575362934 0.054037387193782524 0.7233172194755604 -0.6838749375101969
 9.331301616896063e-05 2.9368786682811203e-05 3.824476039757739e-05 2.222784140203821e-05 0.7233172194755604 -0.6838749375101969 0.02576309575362934 0.054037387193782524
1646285714.2857141 0.022498045713018843 0.05857867687299412 0.813785757730825 -0.5733430760526941 3.4389691836811505e-05 2.500581923628e-05 9.388685611552927e-05 2.9233090360195935e-05
 0.813785757730825 -0.5733430760526941 0.022498045713018843 0.05857867687299412 3.4389691836811505e-05 2.500581923628e-05 3.8586987338766646e-05 2.213892813980703e-05
 3.4389691836811505e-05 2.500581923628e-05 3.4389691836811505e-05 2.500581923628e-05 0.025872890317154763 0.05411415117277235 0.7216938176916357 -0.685578767189991
 9.391314240107332e-05 2.9136932584940092e-05 3.8586987338766646e-05 2.213892813980703e-05 0.7216938176916357 -0.685578767189991 0.025872890317154763 0.05411415117277235
1651367346.9387753 0.022610287153816574 0.05869551654845937 0.8126794114048491 -0.5748858856113921 3.472732612274356e-05 2.495652459419843e-05 9.4489105301699e-05 2.8997552014147727e-05
 0.8126794114048491 -0.5748858856113921 0.022610287153816574 0.05869551654845937 3.472732612274356e-05 2.495652459419843e-05 3.893024393620225e-05 2.2046965783085997e-05
 3.472732612274356e-05 2.495652459419843e-05 3.472732612274356e-05 2.495652459419843e-05 0.025982586203717763 0.05419023645455665 0.7200656605117426 -0.6872787198412967
 9.451602597669007e-05 2.8900837078881482e-05 3.893024393620225e-05 2.2046965783085997e-05 0.7200656605117426 -0.6872787198412967 0.025982586203717763 0.05419023645455665
1656448979.5918367 0.022722650744628897 0.05881182473665237 0.8115695949512726 -0.5764265243375528 3.506641181076214e-05 2.4905029728036943e-05 9.50941373123635e-05 2.875769567796252e-05
 0.8115695949512726 -0.5764265243375528 0.022722650744628897 0.05881182473665237 3.506641181076214e-05 2.4905029728036943e-05 3.9274510487438776e-05 2.195194148069025e-05
 3.506641181076214e-05 2.4905029728036943e-05 3.506641181076214e-05 2.4905029728036943e-05 0.026092179202449585 0.05426564084310324 0.718432753369537 -0.6889747639933282
 9.512167212497365e-05 2.8660440220996463e-05 3.9274510487438776e-05 2.195194148069025e-05 0.718432753369537 -0.6889747639933282 0.026092179202449585 0.05426564084310324
1661530612.2448978 0.02283513386292191 0.05892759870361315 0.8104563097066421 -0.5779649712102947 3.540693432293356e-05 2.485133649130724e-05 9.570195729363031e-05 2.8513460038296712e-05
 0.8104563097066421 -0.5779649712102947 0.02283513386292191 0.05892759870361315 3.540693432293356e-05 2.485133649130724e-05 3.9619767121490016e-05 2.185384272490202e-05
 3.540693432293356e-05 2.485133649130724e-05 3.540693432293356e-05 2.485133649130724e-05 0.026201665028940724 0.05434036214791855 0.7167951022094653 -0.690666867919584
 9.573008553336642e-05 2.8415681128978233e-05 3.9619767121490016e-05 2.185384272490202e-05 0.7167951022094653 -0.690666867919584 0.026201665028940724 0.05434036214791855
1666612244.897959 0.022947733823859676 0.059042835702975784 0.8093395573527206 -0.5795012050123064 3.5748878875193004e-05 2.4795447215296017e-05 9.631256983567318e-05 2.8264782827145788e-05
 0.8093395573527206 -0.5795012050123064 0.022947733823859676 0.059042835702975784 3.5748878875193004e-05 2.4795447215296017e-05 3.9965993800957395e-05 2.175265735953985e-05
 3.5748878875193004e-05 2.4795447215296017e-05 3.5748878875193004e-05 2.4795447215296017e-05 0.026311039324475118 0.054414398185388346 0.7151527134963481 -0.6923549996440325
 9.634127033006563e-05 2.8166497973370256e-05 3.9965993800957395e-05 2.175265735953985e-05 0.7151527134963481 -0.6923549996440325 0.026311039324475118 0.054414398185388346
1671693877.5510204 0.023060447879566365 0.05915753297682837 0.8082193399233966 -0.5810352043337984 3.609223047758444e-05 2.4737364715490553e-05 9.692597895481638e-05 2.801160081328358e-05
 0.8082193399233966 -0.5810352043337984 0.023060447879566365 0.05915753297682837 3.609223047758444e-05 2.4737364715490553e-05 4.031317032426832e-05 2.164837358817243e-05
 3.609223047758444e-05 2.4737364715490553e-05 3.609223047758444e-05 2.4737364715490553e-05 0.02642029765527634 0.05448774678014763 0.7135055942249969 -0.6940391269475392
 9.695523006613416e-05 2.791282796910592e-05 4.031317032426832e-05 2.164837358817243e-05 0.7135055942249969 -0.6940391269475392 0.02642029765527634 0.05448774678014763
1676775510.2040815 0.02317327321839341 0.059271687756596955 0.8070956598116321 -0.5825669475766201 3.643697393458547e-05 2.467709229803815e-05 9.75421880752444e-05 2.7753849793727344e-05
 0.8070956598116321 -0.5825669475766201 0.02317327321839341 0.059271687756596955 3.643697393458547e-05 2.467709229803815e-05 4.066127632802878e-05 2.154097998247773e-05
 3.643697393458547e-05 2.467709229803815e-05 3.643697393458547e-05 2.467709229803815e-05 0.02652943551176179 0.05456040576648217 0.7118537519298667 -0.6957192173745319
 9.757196769724097e-05 2.7654607367074078e-05 4.066127632802878e-05 2.154097998247773e-05 0.7118537519298667 -0.6957192173745319 0.02652943551176179 0.05456040576648217
1681857142.8571427 0.023286206964190703 0.059385297263963376 0.8059685197764449 -0.5840964129585453 3.67830938455217e-05 2.4614633766237043e-05 9.81612000103311e-05 2.7491464585234542e-05
 0.8059685197764449 -0.5840964129585453 0.023286206964190703 0.059385297263963376 3.67830938455217e-05 2.4614633766237043e-05 4.101029128949465e-05 2.143046549074771e-05
 3.67830938455217e-05 2.4614633766237043e-05 3.67830938455217e-05 2.4614633766237043e-05 0.02663844830781215 0.054632372989765705 0.7101971946947371 -0.6973952382399141
 9.819148556502408e-05 2.7391771445716504e-05 4.101029128949465e-05 2.143046549074771e-05 0.7101971946947371 -0.6973952382399141 0.02663844830781215 0.054632372989765705
1686938775.510204 0.023399246175586173 0.05949835871180349 0.8048379229499273 -0.5856235785177347 3.713057460507491e-05 2.4549993427055223e-05 9.878301694358104e-05 2.722437901583708e-05
 0.8048379229499273 -0.5856235785177347 0.023399246175586173 0.05949835871180349 3.713057460507491e-05 2.4549993427055223e-05 4.1360194529166135e-05 2.1316819446539572e-05
 3.713057460507491e-05 2.4549993427055223e-05 3.713057460507491e-05 2.4549993427055223e-05 0.026747331380048082 0.05470364630792624 0.7085359311624237 -0.6990671566362328
 9.881378537807039e-05 2.7124254502662448e-05 4.1360194529166135e-05 2.1316819446539572e-05 0.7085359311624237 -0.6990671566362328 0.026747331380048082 0.05470364630792624
1692020408.1632652 0.02351238784527093 0.05961086930516005 0.8037038728442909 -0.587148422117369 3.7479400403889195e-05 2.4483176097674575e-05 9.9407640409176e-05 2.6952525916418974e-05
 0.8037038728442909 -0.587148422117369 0.02351238784527093 0.05961086930516005 3.7479400403889195e-05 2.4483176097674575e-05 4.171096521350969e-05 2.1200031577473645e-05
 3.7479400403889195e-05 2.4483176097674575e-05 3.7479400403889195e-05 2.4483176097674575e-05 0.026856079987126 0.05477422359294833 0.706869970544514 -0.7007349394411037
 9.943886819250417e-05 2.685198984640681e-05 4.171096521350969e-05 2.1200031577473645e-05 0.706869970544514 -0.7007349394411037 0.026856079987126 0.05477422359294833
1697102040.8163264 0.023625628899293986 0.05972282624224227 0.8025663733589493 -0.5886709214504717 3.7829555229280494e-05 2.441418711205624e-05 0.00010003507127212073 2.6675837112342682e-05
 0.8025663733589493 -0.5886709214504717 0.023625628899293986 0.05972282624224227 3.7829555229280494e-05 2.441418711205624e-05 4.2062582357812253e-05 2.1080092014178142e-05
 3.7829555229280494e-05 2.441418711205624e-05 3.7829555229280494e-05 2.441418711205624e-05 0.026964689309044134 0.05484410273240847 0.7051993226311236 -0.7023985533249065
 0.0001000667343921793 2.657490978803683e-05 4.2062582357812253e-05 2.1080092014178142e-05 0.7051993226311236 -0.7023985533249065 0.026964689309044134 0.05484410273240847
1702183673.4693875 0.023738966196360203 0.05983422671545535 0.8014254287876215 -0.5901910540449116 3.8181022866053844e-05 2.4343032327524217e-05 0.00010066530970798063 2.6394243415131894e-05
 0.8014254287876215 -0.5901910540449116 0.023738966196360203 0.05983422671545535 3.8181022866053844e-05 2.4343032327524217e-05 4.241502482917256e-05 2.0956991299381052e-05
 3.8181022866053844e-05 2.4343032327524217e-05 3.8181022866053844e-05 2.4343032327524217e-05 0.02707315444645991 0.054913281631045203 0.7035239978006739 -0.7040579647587487
 0.00010069738366846733 2.629294563301469e-05 4.241502482917256e-05 2.0956991299381052e-05 0.7035239978006739 -0.7040579647587487 0.02707315444645991 0.054913281631045203
1707265306.122449 0.02385239652714106 0.059945067912460744 0.8002810438254658 -0.5917087972686026 3.853378689743321e-05 2.4269718131363224e-05 0.00010129835518220379 2.6107674614216397e-05
 0.8002810438254658 -0.5917087972686026 0.02385239652714106 0.059945067912460744 3.853378689743321e-05 2.4269718131363224e-05 4.2768271349634e-05 2.083072039714955e-05
 3.853378689743321e-05 2.4269718131363224e-05 3.853378689743321e-05 2.4269718131363224e-05 0.027181470420027286 0.05498175821236431 0.7018440070296825 -0.7057131400227082
 0.00010133081499963509 2.6006027673022366e-05 4.2768271349634e-05 2.083072039714955e-05 0.7018440070296825 -0.7057131400227082 0.027181470420027286 0.05498175821236431
1712346938.77551 0.023965916613592486 0.060055347017267044 0.7991332235762367 -0.5932241283348952 3.8887830706109405e-05 2.419425144742652e-05 0.00010193420642902194 2.581605946874607e-05
 0.7991332235762367 -0.5932241283348952 0.023965916613592486 0.060055347017267044 3.8887830706109405e-05 2.419425144742652e-05 4.312230049946453e-05 2.0701270702276262e-05
 3.8887830706109405e-05 2.419425144742652e-05 3.8887830706109405e-05 2.419425144742652e-05 0.027289632169747183 0.05504953042027947 0.7001593619025636 -0.7073640452143626
 0.00010196702662980475 2.5714085177874822e-05 4.312230049946453e-05 2.0701270702276262e-05 0.7001593619025636 -0.7073640452143626 0.027289632169747183 0.05504953042027947
1717428571.4285712 0.024079523108281143 0.0601650612113517 0.7979819735594593 -0.594737024308171 3.924313747541096e-05 2.411663974275022e-05 0.00010257286142992237 2.551932569948141e-05
 0.7979819735594593 -0.594737024308171 0.024079523108281143 0.0601650612113517 3.924313747541096e-05 2.411663974275022e-05 4.3477090720588415e-05 2.056863404981288e-05
 3.924313747541096e-05 2.411663974275022e-05 3.924313747541096e-05 2.411663974275022e-05 0.02739763455433511 0.05511659622078748 0.6984700746214386 -0.7090106462576101
 0.0001026060160474904 2.541704638750963e-05 4.3477090720588415e-05 2.056863404981288e-05 0.6984700746214386 -0.7090106462576101 0.02739763455433511 0.05511659622078748
1722510204.0816326 0.0241932125937219 0.060274207674818794 0.7968272997176287 -0.5962474621096434 3.959969019060363e-05 2.4036891034169183e-05 0.00010321431739168404 2.5217399980767948e-05
 0.7968272997176287 -0.5962474621096434 0.0241932125937219 0.060274207674818794 3.959969019060363e-05 2.4036891034169183e-05 4.383262032017488e-05 2.043280272475032e-05
 3.959969019060363e-05 2.4036891034169183e-05 3.959969019060363e-05 2.4036891034169183e-05 0.027505472350603428 0.0551829536036847 0.6967761580159463 -0.7106529089117873
 0.00010324777996370336 2.51148385040597e-05 4.383262032017488e-05 2.043280272475032e-05 0.6967761580159463 -0.7106529089117873 0.027505472350603428 0.0551829536036847
1727591836.7346938 0.024306981581725486 0.0603827835875839 0.7956692084234186 -0.5977554185233662 3.995747164032341e-05 2.395501389493004e-05 0.00010385857072397106 2.491020793260223e-05
 0.7956692084234186 -0.5977554185233662 0.024306981581725486 0.0603827835875839 3.995747164032341e-05 2.395501389493004e-05 4.418886747438896e-05 2.0293769471845647e-05
 3.995747164032341e-05 2.395501389493004e-05 3.995747164032341e-05 2.395501389493004e-05 0.027613140252866233 0.05524860058431467 0.6950776255530543 -0.7122907987810942
 0.00010389231428961963 2.4807387684017056e-05 4.418886747438896e-05 2.0293769471845647e-05 0.6950776255530543 -0.7122907987810942 0.027613140252866233 0.05524860058431467
1732673469.387755 0.024420826512756514 0.06049078613059671 0.794507706486909 -0.5992608702024617 4.031646441814986e-05 2.387101746129663e-05 0.00010450561701647668 2.459767411279695e-05
 0.794507706486909 -0.5992608702024617 0.024420826512756514 0.06049078613059671 4.031646441814986e-05 2.387101746129663e-05 4.4545810232310255e-05 2.0151527505594348e-05
 4.031646441814986e-05 2.387101746129663e-05 4.031646441814986e-05 2.387101746129663e-05 0.027720632872357952 0.055313535205357055 0.693374491346859 -0.7139242813243271
 0.0001045396141138035 2.4494619030495178e-05 4.4545810232310255e-05 2.0151527505594348e-05 0.693374491346859 -0.7139242813243271 0.027720632872357952 0.055313535205357055
1737755102.0408163 0.02453474375530594 0.060598212487096736 0.7933428011628195 -0.6007637936755666 4.067665092432419e-05 2.378491143914279e-05 0.00010515545101561054 2.427972200925465e-05
 0.7933428011628195 -0.6007637936755666 0.02453474375530594 0.060598212487096736 4.067665092432419e-05 2.378491143914279e-05 4.4903426520024804e-05 2.0006070520348348e-05
 4.067665092432419e-05 2.378491143914279e-05 4.067665092432419e-05 2.378491143914279e-05 0.02782794473667642 0.05537775553865454 0.6916667701683819 -0.7155533218649377
 0.00010518967367897916 2.4176456585598892e-05 4.4903426520024804e-05 2.0006070520348348e-05 0.6916667701683819 -0.7155533218649377 0.02782794473667642 0.05537775553865454
1742836734.6938775 0.02464872960527185 0.06070505984390141 0.7921745001577518 -0.6022641653535048 4.103801336761918e-05 2.3696706110527157e-05 0.00010580806660072246 2.3956274032357023e-05
 0.7921745001577518 -0.6022641653535048 0.02464872960527185 0.06070505984390141 4.103801336761918e-05 2.3696706110527157e-05 4.526169414489567e-05 1.9857392700577856e-05
 4.103801336761918e-05 2.3696706110527157e-05 4.103801336761918e-05 2.3696706110527157e-05 0.02793507028924199 0.05544125968707573 0.6899544774553401 -0.7171778856014104
 0.00010584248635834479 2.3852823322909254e-05 4.526169414489567e-05 1.9857392700577856e-05 0.6899544774553401 -0.7171778856014104 0.02793507028924199 0.05544125968707573
1747918367.3469386 0.024762780285356455 0.060811325392734046 0.791002811637433 -0.603761961536193 4.140053376736645e-05 2.3606412340244547e-05 0.0001064634567598554 2.3627251507480243e-05
 0.791002811637433 -0.603761961536193 0.024762780285356455 0.060811325392734046 4.140053376736645e-05 2.3606412340244547e-05 4.562059080001814e-05 1.970548873127698e-05
 4.140053376736645e-05 2.3606412340244547e-05 4.140053376736645e-05 2.3606412340244547e-05 0.02804200388878066 0.05550404578642109 0.6882376293219029 -0.718797937617978
 0.00010649804463142092 2.3523641140093163e-05 4.562059080001814e-05 1.970548873127698e-05 0.6882376293219029 -0.718797937617978 0.02804200388878066 0.05550404578642109
1753000000.0 0.024876891944476755 0.06091700633158387 0.7898277442339641 -0.6052571584197802 4.176419395564747e-05 2.3514041582348098e-05 0.00010712161356502133 2.3292574667644373e-05
 0.7898277442339641 -0.6052571584197802 0.024876891944476755 0.06091700633158387 4.176419395564747e-05 2.3514041582348098e-05 4.5980094068865345e-05 1.95503538085113e-05
 4.176419395564747e-05 2.3514041582348098e-05 4.176419395564747e-05 2.3514041582348098e-05 0.028148739808830824 0.05556611200736551 0.6865162425684157 -0.7204134428956751
 0.00010715634005942811 2.3188830851646207e-05 4.5980094068865345e-05 1.95503538085113e-05 0.6865162425684157 -0.7204134428956751 0.028148739808830824 0.05556611200736551
1758081632.6530612 0.024991060657188417 0.06102209986610328 0.7886493070530595 -0.6067497321040294 4.2128975579654876e-05 2.3419605886636263e-05 0.00010778252814699214 2.295216264630724e-05
 0.7886493070530595 -0.6067497321040294 0.024991060657188417 0.06102209986610328 4.2128975579654876e-05 2.3419605886636263e-05 4.6340181430130075e-05 1.9391983650106505e-05
 4.2128975579654876e-05 2.3419605886636263e-05 4.2128975579654876e-05 2.3419605886636263e-05 0.028255272237270004 0.05562745655744089 0.6847903346910936 -0.7220243663237392
 0.00010781736326018491 2.284831218177874e-05 4.6340181430130075e-05 1.9391983650106505e-05 0.6847903346910936 -0.7220243663237392 0.028255272237270004 0.05562745655744089
1763163265.3061223 0.02510528242312589 0.06112660321104382 0.7874675096812801 -0.6082396585999491 4.249486010423067e-05 2.3323117905098062e-05 0.0001084461906695996 2.260593347031184e-05
 0.7874675096812801 -0.6082396585999491 0.02510528242312589 0.06112660321104382 4.249486010423067e-05 2.3323117905098062e-05 4.670083026276942e-05 1.9230374506476222e-05
 4.249486010423067e-05 2.3323117905098062e-05 4.249486010423067e-05 2.3323117905098062e-05 0.028361595275867797 0.05568807768306122 0.6830599238916704 -0.7236306727113677
 0.00010848110388252143 2.2502003757453945e-05 4.670083026276942e-05 1.9230374506476222e-05 0.6830599238916704 -0.7236306727113677 0.028361595275867797 0.05568807768306122
1768244897.9591835 0.02521955316645926 0.06123051359173016 0.7862823621932584 -0.609726913837675 4.286182881458781e-05 2.322459089831058e-05 0.00010911259030353652 2.2253804052998477e-05
 0.7862823621932584 -0.609726913837675 0.02521955316645926 0.06123051359173016 4.286182881458781e-05 2.322459089831058e-05 4.706201785125758e-05 1.906552317158785e-05
 4.286182881458781e-05 2.322459089831058e-05 4.286182881458781e-05 2.322459089831058e-05 0.028467702939867005 0.05574797367158848 0.6813250290870069 -0.7252323267998366
 0.0001091475505802004 2.2149823101589624e-05 4.706201785125758e-05 1.906552317158785e-05 0.6813250290870069 -0.7252323267998366 0.028467702939867005 0.05574797367158848
1773326530.6122448 0.02533386873536593 0.061333828245569315 0.7850938751589007 -0.6112114736746108 4.3229862819222545e-05 2.3124038741781177e-05 0.00010978171519965319 2.1895690187491285e-05
 0.7850938751589007 -0.6112114736746108 0.02533386873536593 0.061333828245569315 4.3229862819222545e-05 2.3124038741781177e-05 4.7423721391054074e-05 1.8897426994063902e-05
 4.3229862819222545e-05 2.3124038741781177e-05 4.3229862819222545e-05 2.3124038741781177e-05 0.02857358915758548 0.05580714285343699 0.6795856699186419 -0.7268292932749879
 0.00010981669098533966 2.1791686626432322e-05 4.7423721391054074e-05 1.8897426994063902e-05 0.6795856699186419 -0.7268292932749879 0.02857358915758548 0.05580714285343699
1778408163.265306 0.025448224901523837 0.061436544423604286 0.7839020596505745 -0.6126933139038325 4.359894305302411e-05 2.302147593222792e-05 0.0001104535524617412 2.1531506540170795e-05
 0.7839020596505745 -0.6126933139038325 0.025448224901523837 0.061436544423604286 4.359894305302411e-05 2.302147593222792e-05 4.778591799429304e-05 1.8726083888417412e-05
 4.359894305302411e-05 2.302147593222792e-05 4.359894305302411e-05 2.302147593222792e-05 0.02867924777004988 0.05586558360422426 0.6778418667622839 -0.7284215367800958
 0.00011048851168132892 2.1427509627116193e-05 4.778591799429304e-05 1.8726083888417412e-05 0.6778418667622839 -0.7284215367800958 0.02867924777004988 0.05586558360422426
1783489795.9183671 0.025562617359619944 0.06153865939210209 0.7827069272502699 -0.614172410262764 4.396905028058971e-05 2.291691759379028e-05 0.0001111280881187991 2.1161166644343117e-05
 0.7827069272502699 -0.614172410262764 0.025562617359619944 0.06153865939210209 4.396905028058971e-05 2.291691759379028e-05 4.814858469570089e-05 1.855149234641853e-05
 4.396905028058971e-05 2.291691759379028e-05 4.396905028058971e-05 2.291691759379028e-05 0.02878467253065892 0.05592329434696009 0.6760936407372374 -0.7300090219291161
 0.0001111629981752351 2.105720627541645e-05 4.814858469570089e-05 1.855149234641853e-05 0.6760936407372374 -0.7300090219291161 0.02878467253065892 0.05592329434696009
1788571428.5714285 0.025677041726878336 0.061640170434184634 0.7815084900567292 -0.6156487384421246 4.434016509975155e-05 2.2810379484162742e-05 0.00011180530709677198 2.078458289411829e-05
 0.7815084900567292 -0.6156487384421246 0.025677041726878336 0.061640170434184634 4.434016509975155e-05 2.2810379484162742e-05 4.851169845874842e-05 1.8373651448590288e-05
 4.434016509975155e-05 2.2810379484162742e-05 4.434016509975155e-05 2.2810379484162742e-05 0.028889857104873105 0.0559802735542802 0.67434101371575 -0.7315917133203275
 0.00011184013486968874 2.068068961371016e-05 4.851169845874842e-05 1.8373651448590288e-05 0.67434101371575 -0.7315917133203275 0.028889857104873105 0.0559802735542802
1793653061.2244897 0.025791493542614126 0.06174107485150292 0.7803067606925401 -0.6171222740951617 4.471226794532388e-05 2.270187800064292e-05 0.00011248519318975897 2.040166653850905e-05
 0.7803067606925401 -0.6171222740951617 0.025791493542614126 0.06174107485150292 4.471226794532388e-05 2.270187800064292e-05 4.887523618204448e-05 1.8192560875830394e-05
 4.471226794532388e-05 2.270187800064292e-05 4.471226794532388e-05 2.270187800064292e-05 0.02899479506993834 0.05603651975072446 0.6725840083322784 -0.7331695755503778
 0.00011251990503424512 2.0297871549155236e-05 4.887523618204448e-05 1.8192560875830394e-05 0.6725840083322784 -0.7331695755503778 0.02899479506993834 0.05603651975072446
1798734693.8775508 0.025905968267800842 0.06184136996594783 0.7791017523111916 -0.6185929928471653 4.5085339093078025e-05 2.259143018608597e-05 0.00011316772903068175 2.001232767576284e-05
 0.7791017523111916 -0.6185929928471653 0.025905968267800842 0.06184136996594783 4.5085339093078025e-05 2.259143018608597e-05 4.923917470597812e-05 1.8008220921156332e-05
 4.5085339093078025e-05 2.259143018608597e-05 4.5085339093078025e-05 2.259143018608597e-05 0.029099479914641218 0.056092031515055575 0.6708226479926622 -0.7347425732287278
 0.00011320229077621439 1.9908662848100436e-05 4.923917470597812e-05 1.8008220921156332e-05 0.6708226479926622 -0.7347425732287278 0.029099479914641218 0.056092031515055575
1803816326.5306122 0.026020461284667052 0.061941053121408754 0.7778934786040819 -0.6200608703052808 4.5459358663953056e-05 2.247905373475668e-05 0.00011385289606140817 1.9616475247940156e-05
 0.7778934786040819 -0.6200608703052808 0.026020461284667052 0.061941053121408754 4.5459358663953056e-05 2.247905373475668e-05 4.960349081961639e-05 1.7820632501570483e-05
 4.5459358663953056e-05 2.247905373475668e-05 4.5459358663953056e-05 2.247905373475668e-05 0.029203905039098903 0.05614680748262504 0.6690569568831964 -0.7363106709925216
 0.00011388727301095379 1.9512973130739414e-05 4.960349081961639e-05 1.7820632501570483e-05 0.6690569568831964 -0.7363106709925216 0.029203905039098903 0.05614680748262504
1808897959.1836734 0.026134967896312894 0.06204012168556951 0.7766819538074746 -0.6215258820686156 4.583430662851058e-05 2.236476699806983e-05 0.00011454067450232312 1.921401703575195e-05
 0.7766819538074746 -0.6215258820686156 0.026134967896312894 0.06204012168556951 4.583430662851058e-05 2.236476699806983e-05 4.996816126786451e-05 1.7629797170041715e-05
 4.583430662851058e-05 2.236476699806983e-05 4.583430662851058e-05 2.236476699806983e-05 0.029308063754582444 0.05620084634777988 0.6672869599795952 -0.7378738335218711
 0.00011457483143161567 1.9110710866021116e-05 4.996816126786451e-05 1.7629797170041715e-05 0.6672869599795952 -0.7378738335218711 0.029308063754582444 0.05620084634777988
1813979591.8367345 0.026249483326352966 0.06213857305175211 0.7754671927093948 -0.622988003738651 4.621016281164166e-05 2.2248588990209494e-05 0.00011523104332134232 1.880485965366999e-05
 0.7754671927093948 -0.622988003738651 0.026249483326352966 0.06213857305175211 4.621016281164166e-05 2.2248588990209494e-05 5.0333162758896456e-05 1.7435717127599584e-05
 4.621016281164166e-05 2.2248588990209494e-05 4.621016281164166e-05 2.2248588990209494e-05 0.02941194928337776 0.05625414686631711 0.665512683055837 -0.7394320255555777
 0.00011526494447834539 1.870178336683035e-05 5.0333162758896456e-05 1.7435717127599584e-05 0.665512683055837 -0.7394320255555777 0.02941194928337776 0.05625414686631711
1819061224.4897957 0.026364002718585387 0.06223640464080221 0.7742492106564648 -0.6244472109299681 4.658690689753487e-05 2.2130539393617828e-05 0.00011592398020236073 1.8388908545324878e-05
 0.7742492106564648 -0.6244472109299681 0.026364002718585387 0.06223640464080221 4.658690689753487e-05 2.2130539393617828e-05 5.069847197186267e-05 1.723839523553756e-05
 4.658690689753487e-05 2.2130539393617828e-05 4.658690689753487e-05 2.2130539393617828e-05 0.02951555475868599 0.05630670785798072 0.6637341526928785 -0.7409852119072888
 0.00011595758930692323 1.828609678545327e-05 5.069847197186267e-05 1.723839523553756e-05 0.6637341526928785 -0.7409852119072888 0.02951555475868599 0.05630670785798072
1824142857.142857 0.026478521136683243 0.06233361390302197 0.7730280235606637 -0.6259034792812842 4.696451843491388e-05 2.2010638564342487e-05 0.0001166194615131313 1.7966067979204873e-05
 0.7730280235606637 -0.6259034792812842 0.026478521136683243 0.06233361390302197 4.696451843491388e-05 2.2010638564342487e-05 5.1064065564883015e-05 1.7037835027720224e-05
 4.696451843491388e-05 2.2010638564342487e-05 4.696451843491388e-05 2.2010638564342487e-05 0.029618873224558962 0.05635852820900711 0.6619513962872317 -0.7425333574821017
 0.00011665274175684409 1.7863556109340657e-05 5.1064065564883015e-05 1.7037835027720224e-05 0.6619513962872317 -0.7425333574821017 0.029618873224558962 0.05635852820900711
1829224489.7959182 0.0265930335639227 0.062430198320143605 0.7718036479060121 -0.627356784466815 4.734297684255355e-05 2.188890753723266e-05 0.00011731746227256623 1.753624104467241e-05
 0.7718036479060121 -0.627356784466815 0.0265930335639227 0.062430198320143605 4.734297684255355e-05 2.188890753723266e-05 5.142992018333214e-05 1.6834040722990577e-05
 4.734297684255355e-05 2.188890753723266e-05 4.734297684255355e-05 2.188890753723266e-05 0.029721897635880738 0.05640960687471269 0.6601644420593902 -0.7440764272936207
 0.00011735037631882902 1.7434065157184992e-05 5.142992018333214e-05 1.6834040722990577e-05 0.6601644420593902 -0.7440764272936207 0.029721897635880738 0.05640960687471269
1834306122.4489794 0.026707534902930527 0.06252615540735336 0.7705761007551721 -0.628807102207966 4.77222614150838e-05 2.1765368030972602e-05 0.00011801795611745682 1.7099329648311977e-05
 0.7705761007551721 -0.628807102207966 0.026707534902930527 0.06252615540735336 4.77222614150838e-05 2.1765368030972602e-05 5.179601246842559e-05 1.6627017237671958e-05
 4.77222614150838e-05 2.1765368030972602e-05 4.77222614150838e-05 2.1765368030972602e-05 0.029824620858387486 0.056459942882127925 0.658373319062097 -0.7456143864814809
 0.00011805046610176371 1.6997526575326295e-05 5.179601246842559e-05 1.6627017237671958e-05 0.658373319062097 -0.7456143864814809 0.029824620858387486 0.056459942882127925
1839387755.1020408 0.02682201997547078 0.0626214827153588 0.7693453997559523 -0.6302544082853542 4.8102351329090645e-05 2.164004245294094e-05 0.00011872091526860441 1.665523451062617e-05
 0.7693453997559523 -0.6302544082853542 0.02682201997547078 0.0626214827153588 4.8102351329090645e-05 2.164004245294094e-05 5.2162319066114105e-05 1.6416770198159448e-05
 4.8102351329090645e-05 2.164004245294094e-05 4.8102351329090645e-05 2.164004245294094e-05 0.02992703566873358 0.05650953533267973 0.6565780571884365 -0.7471472003293325
 0.00011875298279905777 1.655384183450186e-05 5.2162319066114105e-05 1.6416770198159448e-05 0.6565780571884365 -0.7471472003293325 0.02992703566873358 0.05650953533267973
1844469387.755102 0.02693648352225443 0.06271617783250631 0.7681115631477131 -0.631698678551173 4.84832256495234e-05 2.1512953903884413e-05 0.00011942631049635838 1.6203855163096603e-05
 0.7681115631477131 -0.631698678551173 0.02693648352225443 0.06271617783250631 4.84832256495234e-05 2.1512953903884413e-05 5.252881663629447e-05 1.6203305953595308e-05
 4.84832256495234e-05 2.1512953903884413e-05 4.84832256495234e-05 2.1512953903884413e-05 0.030029134754600357 0.056558383404918776 0.6547786871797471 -0.7486748342833113
 0.00011945789665441966 1.6102911226956937e-05 5.252881663629447e-05 1.6203305953595308e-05 0.6547786871797471 -0.7486748342833113 0.030029134754600357 0.056558383404918776
1849551020.408163 0.027050920202793413 0.06281023838694118 0.766874609767664 -0.6331398889419042 4.886486333641863e-05 2.1384126182393595e-05 0.00012013411108555482 1.574508994562565e-05
 0.766874609767664 -0.6331398889419042 0.027050920202793413 0.06281023838694118 4.886486333641863e-05 2.1384126182393595e-05 5.289548186234501e-05 1.5986631588622367e-05
 4.886486333641863e-05 2.1384126182393595e-05 4.886486333641863e-05 2.1384126182393595e-05 0.030130910714858405 0.05660648635728984 0.6529752406333323 -0.7501972539709919
 0.00012016517642704218 1.564463386393269e-05 5.289548186234501e-05 1.5986631588622367e-05 0.6529752406333323 -0.7501972539709919 0.030130910714858405 0.05660648635728984
1854632653.0612245 0.02716532459527708 0.06290366204882154 0.7656345590570447 -0.6345780154913772 4.9247243251949865e-05 2.1253583789167766e-05 0.00012084428479985061 1.5278836004377045e-05
 0.7656345590570447 -0.6345780154913772 0.02716532459527708 0.06290366204882154 4.9247243251949865e-05 2.1253583789167766e-05 5.3262291460993584e-05 1.5766754936209e-05
 4.9247243251949865e-05 2.1253583789167766e-05 4.9247243251949865e-05 2.1253583789167766e-05 0.030232356059770555 0.056653843530956 0.6511677500099706 -0.7517144252208272
 0.00012087478935619362 1.5178907673547925e-05 5.3262291460993584e-05 1.5766754936209e-05 0.6511677500099706 -0.7517144252208272 0.030232356059770555 0.056653843530956
1859714285.7142856 0.027279691196491616 0.06299644653257509 0.764391431067179 -0.6360130343441928 4.9630344167813746e-05 2.1121351931056003e-05 0.0001215567978454492 1.4804989290033022e-05
 0.764391431067179 -0.6360130343441928 0.027279691196491616 0.06299644653257509 4.9630344167813746e-05 2.1121351931056003e-05 5.362922219252726e-05 1.5543684590539083e-05
 4.9630344167813746e-05 2.1121351931056003e-05 4.9630344167813746e-05 2.1121351931056003e-05 0.030333463211250484 0.056700454352661606 0.6493562486411958 -0.7532263140820991
 0.00012158670112520981 1.4705629399093401e-05 5.362922219252726e-05 1.5543684590539083e-05 0.6493562486411958 -0.7532263140820991 0.030333463211250484 0.056700454352661606
1864795918.3673468 0.027394014421776993 0.0630885895992094 0.7631452464653975 -0.6374449217695076 5.001414477296285e-05 2.0987456524860823e-05 0.0001222716148342117 1.43234445564864e-05
 0.7631452464653975 -0.6374449217695076 0.027394014421776993 0.0630885895992094 5.001414477296285e-05 2.0987456524860823e-05 5.3996250871351466e-05 1.5317429919959837e-05
 5.001414477296285e-05 2.0987456524860823e-05 5.001414477296285e-05 2.0987456524860823e-05 0.0304342245031747 0.05674631833764747 0.6475407707363485 -0.7547328868453682
 0.00012230087582488225 1.4224694597755974e-05 5.3996250871351466e-05 1.5317429919959837e-05 0.6475407707363485 -0.7547328868453682 0.0304342245031747 0.05674631833764747
1869877551.0204082 0.0275082886050175 0.06318008905866959 0.7618960265408109 -0.6388736541751862 5.039862368169545e-05 2.085192420089008e-05 0.0001229886987461499 1.3834095359986158e-05
 0.7618960265408109 -0.6388736541751862 0.0275082886050175 0.06318008905866959 5.039862368169545e-05 2.085192420089008e-05 5.4363354376907506e-05 1.5088001079979893e-05
 5.039862368169545e-05 2.085192420089008e-05 5.039862368169545e-05 2.085192420089008e-05 0.030534632181743637 0.05679143509261059 0.6457213513893738 -0.7562341100634405
 0.00012301727591623846 1.373599763979129e-05 5.4363354376907506e-05 1.5088001079979893e-05 0.6457213513893738 -0.7562341100634405 0.030534632181743637 0.05679143509261059
1874959183.6734693 0.027622507998677312 0.06327094277224592 0.760643793209935 -0.6402992081223354 5.078375944211327e-05 2.0714782306242906e-05 0.0001237080108912963 1.3336834058756672e-05
 0.760643793209935 -0.6402992081223354 0.027622507998677312 0.06327094277224592 5.078375944211327e-05 2.0714782306242906e-05 5.4730509664957264e-05 1.4855409026310132e-05
 5.078375944211327e-05 2.0714782306242906e-05 5.078375944211327e-05 2.0714782306242906e-05 0.030634678405904017 0.056835804318710784 0.6438980265853559 -0.757729950572861
 0.00012373586219271046 1.3239431708164686e-05 5.4730509664957264e-05 1.4855409026310132e-05 0.6438980265853559 -0.757729950572861 0.030634678405904017 0.056835804318710784
1880040816.3265305 0.027736666773876945 0.06336114865503376 0.759388569022152 -0.6417215603402155 5.1169530544957804e-05 2.0576058907814198e-05 0.0001244295108709473 1.2831551813109647e-05
 0.759388569022152 -0.6417215603402155 0.027736666773876945 0.06336114865503376 5.1169530544957804e-05 2.0576058907814198e-05 5.50976937792435e-05 1.4619665527938222e-05
 5.1169530544957804e-05 2.0576058907814198e-05 5.1169530544957804e-05 2.0576058907814198e-05 0.030734355247827798 0.056879425814625476 0.6420708332067769 -0.7592203755159302
 0.00012445659374168706 1.2734888798679426e-05 5.50976937792435e-05 1.4619665527938222e-05 0.6420708332067769 -0.7592203755159302 0.030734355247827798 0.056879425814625476
1885122448.9795916 0.027850759020509364 0.06345070467843839 0.758130377164993 -0.643140687741538 5.155591543283636e-05 2.0435782795002152e-05 0.000125153156538276 1.2318138586069967e-05
 0.758130377164993 -0.643140687741538 0.027850759020509364 0.06345070467843839 5.155591543283636e-05 2.0435782795002152e-05 5.5464883863535255e-05 1.4380783180228875e-05
 5.155591543283636e-05 2.0435782795002152e-05 5.155591543283636e-05 2.0435782795002152e-05 0.03083365469344777 0.056922299479646166 0.6402398090394776 -0.7607053523632625
 0.00012517942790544676 1.222225972061275e-05 5.5464883863535255e-05 1.4380783180228875e-05 0.6402398090394776 -0.7607053523632625 0.03083365469344777 0.056922299479646166
1890204081.632653 0.027964778747407687 0.06353960887274104 0.7568692414692422 -0.6445565674381636 5.1942892509849736e-05 2.029398348210319e-05 0.00012587890395831077 1.1796483144536487e-05
 0.7568692414692422 -0.6445565674381636 0.027964778747407687 0.06353960887274104 5.1942892509849736e-05 2.029398348210319e-05 5.583205717406684e-05 1.4138775418040073e-05
 5.1942892509849736e-05 2.029398348210319e-05 5.1942892509849736e-05 2.029398348210319e-05 0.030932568643061892 0.056964425316830776 0.6384049927783074 -0.7621848489368881
 0.00012590432024146896 1.1701434097880968e-05 5.583205717406684e-05 1.4138775418040073e-05 0.6384049927783074 -0.7621848489368881 0.030932568643061892 0.056964425316830776
1895285714.2857141 0.02807871988255169 0.06362785932970594 0.7556051864138421 -0.6459691767571902 5.233044015163178e-05 2.015069121037646e-05 0.00012660670736727633 1.1266473060998179e-05
 0.7556051864138421 -0.6459691767571902 0.02807871988255169 0.06362785932970594 5.233044015163178e-05 2.015069121037646e-05 5.619919109237985e-05 1.3893656528845444e-05
 5.233044015163178e-05 2.015069121037646e-05 5.233044015163178e-05 2.015069121037646e-05 0.031031088911992986 0.057005803436191584 0.636566424032452 -0.7636588334339005
 0.00012663122448211832 1.1172300370753292e-05 5.619919109237985e-05 1.3893656528845444e-05 0.636566424032452 -0.7636588334339005 0.031031088911992986 0.057005803436191584
1900367346.9387753 0.02819257627332932 0.06371545420524559 0.7543382371305918 -0.6473784932574502 5.271853671581393e-05 2.000593694976187e-05 0.00012733651913129527 1.0727994715829758e-05
 0.7543382371305918 -0.6473784932574502 0.02819257627332932 0.06371545420524559 5.271853671581393e-05 2.000593694976187e-05 5.656626313857716e-05 1.3645441665853032e-05
 5.271853671581393e-05 2.000593694976187e-05 5.271853671581393e-05 2.000593694976187e-05 0.031129207231323775 0.05704643405793695 0.634724143330412 -0.7651272744506658
 0.00012736009249370215 1.0634745798138368e-05 5.656626313857716e-05 1.3645441665853032e-05 0.634724143330412 -0.7651272744506658 0.031129207231323775 0.05704643405793695
1905448979.5918367 0.0283063416868442 0.06380239172213716 0.753068419408627 -0.6487844947464174 5.310716055292543e-05 1.9859752400233284e-05 0.00012806828970444648 1.0180933300188176e-05
 0.753068419408627 -0.6487844947464174 0.0283063416868442 0.06380239172213716 5.310716055292543e-05 1.9859752400233284e-05 5.693325098499846e-05 1.3394146861109537e-05
 5.310716055292543e-05 1.9859752400233284e-05 5.310716055292543e-05 1.9859752400233284e-05 0.03122691524869226 0.05708631751575591 0.6328781921246235 -0.7665901410075974
 0.000128090874234897 1.0088656460465001e-05 5.693325098499846e-05 1.3394146861109537e-05 0.6328781921246235 -0.7665901410075974 0.03122691524869226 0.05708631751575591
1910530612.2448978 0.028420009810276987 0.0638886701727896 0.75179575969867 -0.6501871592975299 5.34962900177425e-05 1.9712169992768248e-05 0.00012880196758617893 9.625172819533549e-06
 0.75179575969867 -0.6501871592975299 0.028420009810276987 0.0638886701727896 5.34962900177425e-05 1.9712169992768248e-05 5.730013247032643e-05 1.3139789038578408e-05
 5.34962900177425e-05 1.9712169992768248e-05 5.34962900177425e-05 1.9712169992768248e-05 0.03132420452916188 0.0571254542601496 0.6310286127956943 -0.7680474025744934
 0.00012882351771454322 9.533917263179252e-06 5.730013247032643e-05 1.3139789038578408e-05 0.6310286127956943 -0.7680474025744934 0.03132420452916188 0.0571254542601496
1915612244.897959 0.02853357425129952 0.06397428792206292 0.7505202851170304 -0.6515864652679292 5.388590348109731e-05 1.9563222889915636e-05 0.00012953749927807943 9.060596097798529e-06
 0.7505202851170304 -0.6515864652679292 0.02853357425129952 0.06397428792206292 5.388590348109731e-05 1.9563222889915636e-05 5.7666885614133324e-05 1.2882386027180481e-05
 5.388590348109731e-05 1.9563222889915636e-05 5.388590348109731e-05 1.9563222889915636e-05 0.031421066556165445 0.05716384486180364 0.6291754486562482 -0.7694990290964592
 0.00012955796894880583 8.970411940882956e-06 5.7666885614133324e-05 1.2882386027180481e-05 0.6291754486562482 -0.7694990290964592 0.031421066556165445 0.05716384486180364
1920693877.5510204 0.028647028538544735 0.06405924341014578 0.7492420234493585 -0.6529823913166299 5.427597934216079e-05 1.9412944985941708e-05 0.00013027482923999158 8.487084782231168e-06
 0.7492420234493585 -0.6529823913166299 0.028647028538544735 0.06405924341014578 5.427597934216079e-05 1.9412944985941708e-05 5.803348863187689e-05 1.2621956573784742e-05
 5.427597934216079e-05 1.9412944985941708e-05 5.427597934216079e-05 1.9412944985941708e-05 0.03151749273251868 0.057201490015014095 0.6273187439543451 -0.7709449910204021
 0.00013029417191770057 8.39802306213727e-06 5.803348863187689e-05 1.2621956573784742e-05 0.6273187439543451 -0.7709449910204021 0.03151749273251868 0.057201490015014095
1925775510.2040815 0.028760366122134576 0.06414353515547658 0.7479610031541192 -0.6543749164231164 5.466649604121039e-05 1.9261370906533657e-05 0.00013101389984548664 7.904519348935244e-06
 0.7479610031541192 -0.6543749164231164 0.028760366122134576 0.06414353515547658 5.466649604121039e-05 1.9261370906533657e-05 5.839991995035598e-05 1.2358520356135841e-05
 5.466649604121039e-05 1.9261370906533657e-05 5.466649604121039e-05 1.9261370906533657e-05 0.03161347438151673 0.057238390541147016 0.6254585438764684 -0.7723852593221222
 0.00013103206852098427 7.81663203495529e-06 5.839991995035598e-05 1.2358520356135841e-05 0.6254585438764684 -0.7723852593221222 0.03161347438151673 0.057238390541147016
1930857142.8571427 0.0288735803742664 0.06422716175772696 0.7466772533657859 -0.6557640199063764 5.505743207289679e-05 1.9108536008040728e-05 0.00013175465133668488 7.3127791091350645e-06
 0.7466772533657859 -0.6557640199063764 0.0288735803742664 0.06422716175772696 5.505743207289679e-05 1.9108536008040728e-05 5.8766158223634714e-05 1.2092097995705389e-05
 5.505743207289679e-05 1.9108536008040728e-05 5.505743207289679e-05 1.9108536008040728e-05 0.031709002748106875 0.05727454739214988 0.6235948945500492 -0.7738198055339902
 0.00013177159853341013 7.2261191130105756e-06 5.8766158223634714e-05 1.2092097995705389e-05 0.6235948945500492 -0.7738198055339902 0.031709002748106875 0.05727454739214988
1935938775.5102038 0.02898666458986248 0.06431012190083157 0.7453908038977346 -0.6571496814443758 5.5448766000022474e-05 1.895447637623057e-05 0.00013249702177842748 6.7117422161903066e-06
 0.7453908038977346 -0.6571496814443758 0.02898666458986248 0.06431012190083157 5.5448766000022474e-05 1.895447637623057e-05 5.9132182349445604e-05 1.1822711070452566e-05
 5.5448766000022474e-05 1.895447637623057e-05 5.5448766000022474e-05 1.895447637623057e-05 0.03180406900014518 0.057309961654101106 0.621727843045516 -0.7752486017732269
 0.00013251269955934705 6.6263634025862745e-06 5.9132182349445604e-05 1.1822711070452566e-05 0.621727843045516 -0.7752486017732269 0.03180406900014518 0.057309961654101106
1941020408.1632652 0.02909961198728107 0.06439241435607543 0.7441016852448278 -0.6585318810939739 5.5840476467843994e-05 1.879922882453912e-05 0.00013324094701179935 6.101285673388119e-06
 0.7441016852448278 -0.6585318810939739 0.02909961198728107 0.06439241435607543 5.5840476467843994e-05 1.879922882453912e-05 5.949797148608048e-05 1.1550382127479327e-05
 5.5840476467843994e-05 1.879922882453912e-05 5.5840476467843994e-05 1.879922882453912e-05 0.03189866422973707 0.05734463455080523 0.6198574373778444 -0.7766716207707822
 0.00013325530698676412 6.017242870292119e-06 5.949797148608048e-05 1.1550382127479327e-05 0.6198574373778444 -0.7766716207707822 0.03189866422973707 0.05734463455080523
1946102040.8163264 0.029212415709093848 0.06447403798523205 0.7428099285856612 -0.6599105993112913 5.6232542218913635e-05 1.864283089179088e-05 0.0001339863606070046 5.481285342540102e-06
 0.7428099285856612 -0.6599105993112913 0.029212415709093848 0.06447403798523205 5.6232542218913635e-05 1.864283089179088e-05 5.98635050697801e-05 1.1275134695564677e-05
 5.6232542218913635e-05 1.864283089179088e-05 5.6232542218913635e-05 1.864283089179088e-05 0.031992779454662834 0.05737856744742756 0.6179837265075736 -0.7780888359008205
 0.00013399935394058218 5.398634351576298e-06 5.98635050697801e-05 1.1275134695564677e-05 0.6179837265075736 -0.7780888359008205 0.031992779454662834 0.05737856744742756
1951183673.4693875 0.02932506882293358 0.0645549917437551 0.7415155657844775 -0.6612858169725281 5.6624942108471495e-05 1.848532083936633e-05 0.0001347331938155946 4.8516159534127355e-06
 0.7415155657844775 -0.6612858169725281 0.02932506882293358 0.0645549917437551 5.6624942108471495e-05 1.848532083936633e-05 6.022876283263105e-05 1.0996993297562255e-05
 5.6624942108471495e-05 1.848532083936633e-05 5.6624942108471495e-05 1.848532083936633e-05 0.03208640561989844 0.05741176185417039 0.6161067603412907 -0.779500221210822
 0.0001347447712353932 4.770413560060357e-06 6.022876283263105e-05 1.0996993297562255e-05 0.6161067603412907 -0.779500221210822 0.03208640561989844 0.05741176185417039
1956265306.122449 0.0294375643224082 0.0646352746840227 0.7402186293927123 -0.6626575153952392 5.7017655120403746e-05 1.8326737647791807e-05 0.0001354813755220522 4.212151114019408e-06
 0.7402186293927123 -0.6626575153952392 0.0294375643224082 0.0646352746840227 5.7017655120403746e-05 1.8326737647791807e-05 6.0593724820980444e-05 1.0715983462643928e-05
 5.7017655120403746e-05 1.8326737647791807e-05 5.7017655120403746e-05 1.8326737647791807e-05 0.03217953359922174 0.057444219429988244 0.6142265897315381 -0.7809057514522911
 0.00013549148732755015 4.1324550977249246e-06 6.0593724820980444e-05 1.0715983462643928e-05 0.6142265897315381 -0.7809057514522911 0.03217953359922174 0.057444219429988244
1961346938.77551 0.029549895128087925 0.06471488595863636 0.7389191526501615 -0.6640256763600717 5.7410660383779576e-05 1.816712101272738e-05 0.00013623083219473415 3.562763321804705e-06
 0.7389191526501615 -0.6640256763600717 0.029549895128087925 0.06471488595863636 5.7410660383779576e-05 1.816712101272738e-05 6.095837141437847e-05 1.0432131738372487e-05
 5.7410660383779576e-05 1.816712101272738e-05 5.7410660383779576e-05 1.816712101272738e-05 0.03227215419691841 0.05747594198634406 0.6123432664761249 -0.7823054021120922
 0.00013623942826663065 3.4846324659764752e-06 6.095837141437847e-05 1.0432131738372487e-05 0.6123432664761249 -0.7823054021120922 0.03227215419691841 0.05747594198634406
1966428571.4285712 0.02966205408856987 0.06479382482376722 0.7376171694857615 -0.6653902821329614 5.780393718998137e-05 1.8006511340326306e-05 0.0001369814878361745 2.9033239757497915e-06
 0.7376171694857615 -0.6653902821329614 0.02966205408856987 0.06479382482376722 5.780393718998137e-05 1.8006511340326306e-05 6.132268334505744e-05 1.0145465702584442e-05
 5.780393718998137e-05 1.8006511340326306e-05 5.780393718998137e-05 1.8006511340326306e-05 0.032364258149583 0.05750693149099856 0.6104568433168247 -0.7836991494443926
 0.0001369885176462772 2.826818077623461e-06 6.132268334505744e-05 1.0145465702584442e-05 0.6104568433168247 -0.7836991494443926 0.032364258149583 0.05750693149099856
1971510204.0816326 0.029774033981615673 0.06487209064256255 0.7363127145179518 -0.6667513154877981 5.819746501044217e-05 1.7844949741940356e-05 0.00013773326393275355 2.233703389431186e-06
 0.7363127145179518 -0.6667513154877981 0.029774033981615673 0.06487209064256255 5.819746501044217e-05 1.7844949741940356e-05 6.168664171795858e-05 9.85601397506478e-06
 5.819746501044217e-05 1.7844949741940356e-05 5.819746501044217e-05 1.7844949741940356e-05 0.03245583612802248 0.05753719007184326 0.6085673739374281 -0.7850869705032422
 0.00013773867655441908 2.1588832697936444e-06 6.168664171795858e-05 9.85601397506478e-06 0.6085673739374281 -0.7850869705032422 0.03245583612802248 0.05753719007184326
1976591836.7346938 0.02988582751537182 0.06494968288859689 0.7350058230546087 -0.6681087597295639 5.859122351500476e-05 1.768247802814336e-05 0.00013848607940373627 1.553770805063556e-06
 0.7350058230546087 -0.6681087597295639 0.02988582751537182 0.06494968288859689 5.859122351500476e-05 1.768247802814336e-05 6.205022803131516e-05 9.563806228993453e-06
 5.859122351500476e-05 1.768247802814336e-05 5.859122351500476e-05 1.768247802814336e-05 0.032546878739259634 0.05756672002076232 0.6066749129611223 -0.7864688431757703
 0.00013848982352287928 1.4806983178228065e-06 6.205022803131516e-05 9.563806228993453e-06 0.6066749129611223 -0.7864688431757703 0.032546878739259634 0.05756672002076232
1981673469.387755 0.029997427329667828 0.06502660114937618 0.7336965310925313 -0.6694625987179351 5.8985192590916487e-05 1.7519138702044854e-05 0.00013923985054968612 8.633944085587736e-07
 0.7336965310925313 -0.6694625987179351 0.029997427329667828 0.06502660114937618 5.8985192590916487e-05 1.7519138702044854e-05 6.241342419780239e-05 9.268873202142924e-06
 5.8985192590916487e-05 1.7519138702044854e-05 5.8985192590916487e-05 1.7519138702044854e-05 0.0326373765286456 0.05759552379752965 0.6047795159471763 -0.78784474621601
 0.00013924187447637336 7.921324501466054e-07 6.241342419780239e-05 9.268873202142924e-06 0.6047795159471763 -0.78784474621601 0.0326373765286456 0.05759552379752965
1986755102.0408163 0.030108825997401733 0.06510284512989614 0.7323848753164615 -0.6708128168913631 5.937935236247456e-05 1.735497495186538e-05 0.0001399944910002588 1.624413456344805e-07
 0.7323848753164615 -0.6708128168913631 0.030108825997401733 0.06510284512989614 5.937935236247456e-05 1.735497495186538e-05 6.277621256626346e-05 8.971246707805876e-06
 5.937935236247456e-05 1.735497495186538e-05 5.937935236247456e-05 1.735497495186538e-05 0.03272731998207837 0.05762360403374219 0.6028812393869012 -0.7892146592793479
 0.0001399947426809056 9.305386422826437e-08 6.277621256626346e-05 8.971246707805876e-06 0.6028812393869012 -0.7892146592793479 0.03272731998207837 0.05762360403374219
1991836734.6938775 0.030220016026013638 0.06517841465624725 0.7310708930976131 -0.6721593992916287 5.977368321133661e-05 1.719003064274368e-05 0.00014074991166138431 -5.492222609945317e-07
 0.7310708930976131 -0.6721593992916287 0.030220016026013638 0.06517841465624725 5.977368321133661e-05 1.719003064274368e-05 6.313857594402132e-05 8.670959645430505e-06
 5.977368321133661e-05 1.719003064274368e-05 5.977368321133661e-05 1.719003064274368e-05 0.03281669952833837 0.05765096353678034 0.6009801406988553 -0.7905785629576042
 0.00014074833869156937 -6.16670256445068e-07 6.313857594402132e-05 8.670959645430505e-06 0.6009801406988553 -0.7905785629576042 0.03281669952833837 0.05765096353678034
1996918367.3469386 0.030330989859042885 0.06525330967926857 0.7297546224916973 -0.6735023315888777 6.0168165797510775e-05 1.70243503077453e-05 0.00014150602066184388 -1.2717312933081516e-06
 0.7297546224916973 -0.6735023315888777 0.030330989859042885 0.06525330967926857 6.0168165797510775e-05 1.70243503077453e-05 6.350049761978603e-05 8.368046010940526e-06
 6.0168165797510775e-05 1.70243503077453e-05 6.0168165797510775e-05 1.70243503077453e-05 0.03290550554152926 0.05767760529379684 0.5990762782232734 -0.7919364388147412
 0.00014150257029975995 -1.3371737242639362e-06 6.350049761978603e-05 8.368046010940526e-06 0.5990762782232734 -0.7919364388147412 0.03290550554152926 0.05767760529379684
2001999999.9999998 0.030441739877780014 0.06532753027825684 0.7284361022364161 -0.6748416001071232 6.0562781081040565e-05 1.6857979138041372e-05 0.00014226272329924923 -2.005221618520727e-06
 0.7284361022364161 -0.6748416001071232 0.030441739877780014 0.06532753027825684 6.0562781081040565e-05 1.6857979138041372e-05 6.386196138716689e-05 8.062540906715899e-06
 6.0562781081040565e-05 1.6857979138041372e-05 6.0562781081040565e-05 1.6857979138041372e-05 0.0329937283436453 0.0577035324757396 0.5971697112156755 -0.7932882694231881
 0.00014225734247980744 -2.068591328261426e-06 6.386196138716689e-05 8.062540906715899e-06 0.5971697112156755 -0.7932882694231881 0.0329937283436453 0.0577035324757396
2007081632.6530612 0.030552258403019186 0.06540107666471422 0.7271153717484113 -0.6761771918502392 6.095751034439922e-05 1.6690962972225738e-05 0.00014301992198543443 -2.749830068433588e-06
 0.7271153717484113 -0.6761771918502392 0.030552258403019186 0.06540107666471422 6.095751034439922e-05 1.6690962972225738e-05 6.422295156879844e-05 7.75448055120947e-06
 6.095751034439922e-05 1.6690962972225738e-05 6.095751034439922e-05 1.6690962972225738e-05 0.03308135820725656 0.0577287484413908 0.5952604998396435 -0.7946340384008022
 0.00014301255733504005 -2.8110588137064344e-06 6.422295156879844e-05 7.75448055120947e-06 0.5952604998396435 -0.7946340384008022 0.03308135820725656 0.0577287484413908
2012163265.3061223 0.030662537696895267 0.0654739491861509 0.725792471119639 -0.677509094528422 6.13523352156083e-05 1.6523348284737077e-05 0.00014377751619126978 -3.505694417563925e-06
 0.725792471119639 -0.677509094528422 0.030662537696895267 0.0654739491861509 6.13523352156083e-05 1.6523348284737077e-05 6.458345304109035e-05 7.4439022881738525e-06
 6.13523352156083e-05 1.6523348284737077e-05 6.13523352156083e-05 1.6523348284737077e-05 0.033168385358315115 0.05775325674143749 0.5933487051587187 -0.7959737304484426
 0.00014376811404328633 -3.56471286048987e-06 6.458345304109035e-05 7.4439022881738525e-06 0.5933487051587187 -0.7959737304484426 0.033168385358315115 0.05775325674143749
2017244897.9591835 0.030772569964832276 0.06554614832992932 0.7244674411131536 -0.6788372965851369 6.174723769209606e-05 1.6355182173352624e-05 0.00014453540239090865 -4.272953360013242e-06
 0.7244674411131536 -0.6788372965851369 0.030772569964832276 0.06554614832992932 6.174723769209606e-05 1.6355182173352624e-05 6.494345125960945e-05 7.1308445954717445e-06
 6.174723769209606e-05 1.6355182173352624e-05 6.174723769209606e-05 1.6355182173352624e-05 0.033254799979090234 0.05777706112255846 0.5914343891274001 -0.7973073313881703
 0.00014452390880182999 -4.329691060267443e-06 6.494345125960945e-05 7.1308445954717445e-06 0.5914343891274001 -0.7973073313881703 0.033254799979090234 0.05777706112255846
2022326530.6122448 0.030882347357588907 0.06561767472715646 0.723140323158275 -0.6801617872245329 6.214220016531012e-05 1.618651234571837e-05 0.00014529347400547783 -5.0517464850381514e-06
 0.723140323158275 -0.6801617872245329 0.030882347357588907 0.06561767472715646 6.214220016531012e-05 1.618651234571837e-05 6.530293228510329e-05 6.815347093441981e-06
 6.214220016531012e-05 1.618651234571837e-05 6.214220016531012e-05 1.618651234571837e-05 0.03334059221123626 0.057800165531534935 0.5895176145812021 -0.7986348282020536
 0.00014527983477182583 -5.1061318923223005e-06 6.530293228510329e-05 6.815347093441981e-06 0.5895176145812021 -0.7986348282020536 0.03334059221123626 0.057800165531534935
2027408163.265306 0.030991861973409075 0.065688529156617 0.7218111593451156 -0.6814825564393429 6.253720544610005e-05 1.601738710488066e-05 0.00014605162134622628 -5.842214251285061e-06
 0.7218111593451156 -0.6814825564393429 0.030991861973409075 0.065688529156617 6.253720544610005e-05 1.601738710488066e-05 6.566188281017394e-05 6.4974505527928654e-06
 6.253720544610005e-05 1.601738710488066e-05 6.253720544610005e-05 1.601738710488066e-05 0.03342575215898532 0.05782257411937301 0.5875984452257446 -0.7999562090715928
 0.0001460357820221929 -5.894174698109783e-06 6.566188281017394e-05 6.4974505527928654e-06 0.5875984452257446 -0.7999562090715928 0.03342575215898532 0.05782257411937301
2032489795.9183671 0.031101105860287623 0.06575871254875111 0.7204799924184454 -0.6827995950392504 6.293223679088422e-05 1.584785533378233e-05 0.00014680973155714393 -6.644497959649254e-06
 0.7204799924184454 -0.6827995950392504 0.031101105860287623 0.06575871254875111 6.293223679088422e-05 1.584785533378233e-05 6.602029018661053e-05 6.177196901993112e-06
 6.293223679088422e-05 1.584785533378233e-05 6.293223679088422e-05 1.584785533378233e-05 0.03351026989248994 0.05784429124544509 0.58567694562484 -0.8012714634177474
 0.00014679163747299687 -6.693959654445805e-06 6.602029018661053e-05 6.177196901993112e-06 0.58567694562484 -0.8012714634177474 0.03351026989248994 0.05784429124544509
2037571428.5714285 0.031210071018334486 0.06582822598967189 0.719146865770873 -0.6841128946797288 6.332727792861706e-05 1.5677966478685998e-05 0.00014756768855706578 -7.458739724720941e-06
 0.719146865770873 -0.6841128946797288 0.031210071018334486 0.06582822598967189 6.332727792861706e-05 1.5677966478685998e-05 6.637814245338873e-05 5.854629234129248e-06
 6.332727792861706e-05 1.5677966478685998e-05 6.332727792861706e-05 1.5677966478685998e-05 0.033594135451287956 0.057865321481638844 0.583753181187542 -0.8025805819415547
 0.00014754728483833672 -7.505627745301259e-06 6.637814245338873e-05 5.854629234129248e-06 0.583753181187542 -0.8025805819415547 0.033594135451287956 0.057865321481638844
2042653061.2244897 0.03131874940226882 0.06589707072522628 0.7178118234353065 -0.685422447891348 6.372231308857066e-05 1.5507770531486603e-05 0.00014832537298127723 -8.285082444775446e-06
 0.7178118234353065 -0.685422447891348 0.03131874940226882 0.06589707072522628 6.372231308857066e-05 1.5507770531486603e-05 6.673542836534571e-05 5.5297918131986155e-06
 6.372231308857066e-05 1.5507770531486603e-05 6.372231308857066e-05 1.5507770531486603e-05 0.033677338847926515 0.05788566961652143 0.5818272181541204 -0.8038835566653489
 0.00014830260456875194 -8.329320732161193e-06 6.673542836534571e-05 5.5297918131986155e-06 0.5818272181541204 -0.8038835566653489 0.033677338847926515 0.05788566961652143
2047734693.8775508 0.03142713292401298 0.06596524816508445 0.7164749100766852 -0.6867282481095468 6.411732702894694e-05 1.533731801087336e-05 0.00014908266212263765 -9.123669770269432e-06
 0.7164749100766852 -0.6867282481095468 0.03142713292401298 0.06596524816508445 6.411732702894694e-05 1.533731801087336e-05 6.709213742253804e-05 5.202730079804011e-06
 6.411732702894694e-05 1.533731801087336e-05 6.411732702894694e-05 1.533731801087336e-05 0.03375987007171754 0.05790534065949953 0.5798991235809281 -0.8051803809745576
 0.00014905747379316802 -9.165181122910752e-06 6.709213742253804e-05 5.202730079804011e-06 0.5798991235809281 -0.8051803809745576 0.03375987007171754 0.05790534065949953
2052816326.530612 0.03153521345542631 0.0660327598868793 0.7151361709829438 -0.6880302897048588 6.451230506633415e-05 1.5166659942301234e-05 0.00014983942987223937 -9.974646070799585e-06
 0.7151361709829438 -0.6880302897048588 0.03153521345542631 0.0660327598868793 6.451230506633415e-05 1.5166659942301234e-05 6.744825990029028e-05 4.8734906562171225e-06
 6.451230506633415e-05 1.5166659942301234e-05 6.451230506633415e-05 1.5166659942301234e-05 0.033841719092657596 0.057924339844993684 0.5779689653241249 -0.8064710496600681
 0.00014981176626039622 -1.0013352139205355e-05 6.744825990029028e-05 4.8734906562171225e-06 0.5779689653241249 -0.8064710496600681 0.033841719092657596 0.057924339844993684
2057897959.1836734 0.031642982831144056 0.06609960764036701 0.7137956520551835 -0.6893285680136051 6.490723310602425e-05 1.499584783673115e-05 0.00015059554665962173 -1.0838156400483334e-05
 0.7137956520551835 -0.6893285680136051 0.031642982831144056 0.06609960764036701 6.490723310602425e-05 1.499584783673115e-05 6.780378687994177e-05 4.542121350774996e-06
 6.490723310602425e-05 1.499584783673115e-05 6.490723310602425e-05 1.499584783673115e-05 0.03392287586548665 0.05794267263660471 0.576036812022211 -0.8077555589611699
 0.00015056535228020963 -1.0873977682285302e-05 6.780378687994177e-05 4.542121350774996e-06 0.576036812022211 -0.8077555589611699 0.03392287586548665 0.05794267263660471
2062979591.8367345 0.031750432851550894 0.066165793351628 0.7124533997970302 -0.6906230793690148 6.530209767320383e-05 1.4824933668095776e-05 0.00015135087939255963 -1.1714346461718491e-05
 0.7124533997970302 -0.6906230793690148 0.031750432851550894 0.066165793351628 6.530209767320383e-05 1.4824933668095776e-05 6.815871028029794e-05 4.208671161573266e-06
 6.530209767320383e-05 1.4824933668095776e-05 6.530209767320383e-05 1.4824933668095776e-05 0.03400333033390916 0.05796034473127686 0.5741027330773475 -0.8090339066090279
 0.00015131809866401292 -1.1747202297191815e-05 6.815871028029794e-05 4.208671161573266e-06 0.5741027330773475 -0.8090339066090279 0.03400333033390916 0.05796034473127686
2068061224.4897957 0.03185755528588533 0.06623131912729656 0.7111094613031502 -0.6919138211328092 6.56968859450355e-05 1.4653969849449298e-05 0.00015210529139644943 -1.2603362567277761e-05
 0.7111094613031502 -0.6919138211328092 0.03185755528588533 0.06623131912729656 6.56968859450355e-05 1.4653969849449298e-05 6.851302288979336e-05 3.873190279419865e-06
 6.56968859450355e-05 1.4653969849449298e-05 6.56968859450355e-05 1.4653969849449298e-05 0.034083072434975235 0.05797736206345988 0.57216679863542 -0.8103060918707135
 0.00015206986866513026 -1.2633171135343089e-05 6.851302288979336e-05 3.873190279419865e-06 0.57216679863542 -0.8103060918707135 0.034083072434975235 0.05797736206345988
2073142857.142857 0.031964341875474575 0.06629618725881803 0.7097638842468799 -0.6932007917272035 6.609158578364335e-05 1.4483009207755274e-05 0.00015285864235331417 -1.3505351600696973e-05
 0.7097638842468799 -0.6932007917272035 0.031964341875474575 0.06629618725881803 6.609158578364335e-05 1.4483009207755274e-05 6.886671839937303e-05 3.5357300900084614e-06
 6.609158578364335e-05 1.4483009207755274e-05 6.609158578364335e-05 1.4483009207755274e-05 0.03416209210362365 0.05799373080925363 0.5702290795647879 -0.8115721155937486
 0.00015282052191873272 -1.3532029915427259e-05 6.886671839937303e-05 3.5357300900084614e-06 0.5702290795647879 -0.8115721155937486 0.03416209210362365 0.05799373080925363
2078224489.7959182 0.03207078433709974 0.06636040022672873 0.7084167168669696 -0.6944839906673435 6.648618577001646e-05 1.4312104957269658e-05 0.00015361078824045117 -1.4420460974908728e-05
 0.7084167168669696 -0.6944839906673435 0.03207078433709974 0.06636040022672873 6.648618577001646e-05 1.4312104957269658e-05 6.921979143609646e-05 3.1963431752745706e-06
 6.648618577001646e-05 1.4312104957269658e-05 6.648618577001646e-05 1.4312104957269658e-05 0.034240379277384804 0.05800945739053831 0.5682896474337142 -0.8128319802511643
 0.00015356991438142934 -1.444392488256753e-05 6.921979143609646e-05 3.1963431752745706e-06 0.5682896474337142 -0.8128319802511643 0.034240379277384804 0.05800945739053831
2083306122.4489794 0.0321768743665092 0.06642396070496198 0.7070680079533856 -0.6957634185941554 6.688067523884585e-05 1.4141310671471224e-05 0.0001543615812687496 -1.53488385890803e-05
 0.7070680079533856 -0.6957634185941554 0.0321768743665092 0.06642396070496198 6.688067523884585e-05 1.4141310671471224e-05 6.95722375974716e-05 2.8550833138911315e-06
 6.688067523884585e-05 1.4141310671471224e-05 6.688067523884585e-05 1.4141310671471224e-05 0.034317923901263044 0.0580245484790892 0.5663485744864066 -0.8140856899870553
 0.00015431789827054788 -1.5369002765716836e-05 6.95722375974716e-05 2.8550833138911315e-06 0.5663485744864066 -0.8140856899870553 0.034317923901263044 0.0580245484790892
2088387755.1020408 0.032282603642065366 0.06648687156517626 0.7057178068321548 -0.6970390773076006 6.727504431430812e-05 1.3970680253492856e-05 0.00015511086982070198 -1.6290632783608777e-05
 0.7057178068321548 -0.6970390773076006 0.032282603642065366 0.06648687156517626 6.727504431430812e-05 1.3970680253492856e-05 6.992405348652195e-05 2.5120054808619532e-06
 6.727504431430812e-05 1.3970680253492856e-05 6.727504431430812e-05 1.3970680253492856e-05 0.03439471593278379 0.058039011000665795 0.5644059336176367 -0.8153332506625994
 0.00015506432200313182 -1.6307410733237286e-05 6.992405348652195e-05 2.5120054808619532e-06 0.5644059336176367 -0.8153332506625994 0.03439471593278379 0.058039011000665795
2093469387.755102 0.032387963828545425 0.0665491358810988 0.7043661633492191 -0.6983109698003317 6.766928394681003e-05 1.3800267905006388e-05 0.00015585849838814026 -1.7245992293226735e-05
 0.7043661633492191 -0.6983109698003317 0.032387963828545425 0.0665491358810988 6.766928394681003e-05 1.3800267905006388e-05 7.027523674759268e-05 2.167165846170177e-06
 6.766928394681003e-05 1.3800267905006388e-05 6.766928394681003e-05 1.3800267905006388e-05 0.034470745347220604 0.05805285213907738 0.5624617983459035 -0.8165746699025456
 0.00015580903013468172 -1.7259296346618386e-05 7.027523674759268e-05 2.167165846170177e-06 0.5624617983459035 -0.8165746699025456 0.034470745347220604 0.05805285213907738
2098551020.408163 0.03249294658107726 0.0666107569328784 0.7030131278532602 -0.6995791002917249 6.806338595070781e-05 1.3630128093510857e-05 0.00015660430750972506 -1.8215066198174313e-05
 0.7030131278532602 -0.6995791002917249 0.03249294658107726 0.0666107569328784 6.806338595070781e-05 1.3630128093510857e-05 7.062578610289913e-05 1.8206217724354266e-06
 6.806338595070781e-05 1.3630128093510857e-05 6.806338595070781e-05 1.3630128093510857e-05 0.034546002142996836 0.05806607934020648 0.5605162427850828 -0.8178099571421324
 0.00015655186329767125 -1.8224807512289776e-05 7.062578610289913e-05 1.8206217724354266e-06 0.5605162427850828 -0.8178099571421324 0.034546002142996836 0.05806607934020648
2103632653.0612245 0.03259754354924459 0.06667173821145989 0.7016587511774867 -0.7008434742622877 6.845734304301378e-05 1.3460315517975292e-05 0.00015734813370821786 -1.919800387338782e-05
 0.7016587511774867 -0.7008434742622877 0.03259754354924459 0.06667173821145989 6.845734304301378e-05 1.3460315517975292e-05 7.097570138982032e-05 1.4724318115351588e-06
 6.845734304301378e-05 1.3460315517975292e-05 6.845734304301378e-05 1.3460315517975292e-05 0.03462047634727948 0.058078700316008015 0.558569341614543 -0.8190391236744184
 0.00015729265813986786 -1.9204092431480778e-05 7.097570138982032e-05 1.4724318115351588e-06 0.558569341614543 -0.8190391236744184 0.03462047634727948 0.058078700316008015
2108714285.7142856 0.0327017463813256 0.06673208342295905 0.7003030846203174 -0.7021040984884246 6.885114888310453e-05 1.3290885072783809e-05 0.00015808980942757115 -2.0194954935660396e-05
 0.7003030846203174 -0.7021040984884246 0.0327017463813256 0.06673208342295905 6.885114888310453e-05 1.3290885072783809e-05 7.132498359894189e-05 1.1226557001411135e-06
 6.885114888310453e-05 1.3290885072783809e-05 6.885114888310453e-05 1.3290885072783809e-05 0.03469415802174292 0.05809072304845729 0.5566211700476557 -0.8202621826980107
 0.00015803124726249145 -2.0197299548082282e-05 7.132498359894189e-05 1.1226557001411135e-06 0.5566211700476557 -0.8202621826980107 0.03469415802174292 0.05809072304845729
2113795918.3673468 0.03280554672870944 0.06679179649304212 0.6989461799249608 -0.7033609810775376 6.924479811344221e-05 1.3121891809931946e-05 0.00015882916296986837 -2.1206069188725173e-05
 0.6989461799249608 -0.7033609810775376 0.03280554672870944 0.06679179649304212 6.924479811344221e-05 1.3121891809931946e-05 7.167363491284906e-05 7.713543541228391e-07
 6.924479811344221e-05 1.3121891809931946e-05 6.924479811344221e-05 1.3121891809931946e-05 0.03476703726853737 0.05810215579345208 0.5546718037986773 -0.821479149365145
 0.0001587674591582455 -2.120457749446301e-05 7.167363491284906e-05 7.713543541228391e-07 0.5546718037986773 -0.821479149365145 0.03476703726853737 0.05810215579345208
2118877551.020408 0.03290893625046332 0.06685088157131232 0.6975880892578411 -0.7046141315034599 6.963828640132189e-05 1.2953390899420866e-05 0.0001595660184321502 -2.2231496566212748e-05
 0.6975880892578411 -0.7046141315034599 0.03290893625046332 0.06685088157131232 6.963828640132189e-05 1.2953390899420866e-05 7.202165874567184e-05 4.185898617680788e-07
 6.963828640132189e-05 1.2953390899420866e-05 6.963828640132189e-05 1.2953390899420866e-05 0.03483910423644382 0.05811300708466911 0.5527213190479567 -0.8226900408301193
 0.0001595011181492547 -2.2226075035192158e-05 7.202165874567184e-05 4.185898617680788e-07 0.5527213190479567 -0.8226900408301193 0.03483910423644382 0.05811300708466911
2123959183.6734693 0.033011906618062956 0.06690934303568595 0.6962288651858324 -0.7058635606421888 7.003161048165722e-05 1.2785437587795003e-05 0.00016030019564316553 -2.3271387072436062e-05
 0.6962288651858324 -0.7058635606421888 0.033011906618062956 0.06690934303568595 7.003161048165722e-05 1.2785437587795003e-05 7.236905978338362e-05 6.44254757675098e-08
 7.003161048165722e-05 1.2785437587795003e-05 7.003161048165722e-05 1.2785437587795003e-05 0.0349103491272192 0.058123285737351295 0.550769792405401 -0.8238948762980236
 0.00016023204432494934 -2.3261941008623304e-05 7.236905978338362e-05 6.44254757675098e-08 0.550769792405401 -0.8238948762980236 0.0349103491272192 0.058123285737351295
2129040816.3265305 0.03311444952029681 0.06696718549676359 0.6948685606522903 -0.7071092808079195 7.042476820081535e-05 1.2618087154769138e-05 0.000161031510100084 -2.4325890720951276e-05
 0.6948685606522903 -0.7071092808079195 0.03311444952029681 0.06696718549676359 7.042476820081535e-05 1.2618087154769138e-05 7.271584402485256e-05 -2.910743960881037e-07
 7.042476820081535e-05 1.2618087154769138e-05 7.042476820081535e-05 1.2618087154769138e-05 0.03498076220214943 0.058133000852038076 0.5488173008721893 -0.8250936770737616
 0.00016096005347993142 -2.431232426628806e-05 7.271584402485256e-05 -2.910743960881037e-07 0.5488173008721893 -0.8250936770737616 0.03498076220214943 0.058133000852038076
2134122448.9795916 0.033216556668335416 0.06702441380219157 0.6935072289518214 -0.7083513057893344 7.081775856151227e-05 1.2451394867887469e-05 0.0001617597729052116 -2.5395157470847614e-05
 0.6935072289518214 -0.7083513057893344 0.033216556668335416 0.06702441380219157 7.081775856151227e-05 1.2451394867887469e-05 7.306201882364505e-05 -6.478442015540882e-07
 7.081775856151227e-05 1.2451394867887469e-05 7.081775856151227e-05 1.2451394867887469e-05 0.03505033378879595 0.05814216181822311 0.5468639218006595 -0.8262864666113056
 0.00016168495705186638 -2.5377373610054987e-05 7.306201882364505e-05 -6.478442015540882e-07 0.5468639218006595 -0.8262864666113056 0.03505033378879595 0.05814216181822311
2139204081.632653 0.03331821980097824 0.06708103304100806 0.6921449237037737 -0.709589650886153 7.121058176877987e-05 1.2285415935159e-05 0.00016248479070275282 -2.6479337160715215e-05
 0.6921449237037737 -0.709589650886153 0.03331821980097824 0.06708103304100806 7.121058176877987e-05 1.2285415935159e-05 7.340759293058085e-05 -1.0058172559763279e-06
 7.121058176877987e-05 1.2285415935159e-05 7.121058176877987e-05 1.2285415935159e-05 0.035119054287952214 0.05815077831793822 0.5449097328523353 -0.827473270563177
 0.00016240656205944155 -2.6457237727002317e-05 7.340759293058085e-05 -1.0058172559763279e-06 0.5449097328523353 -0.827473270563177 0.035119054287952214 0.05815077831793822
2144285714.2857141 0.03341943069007582 0.06713704854796489 0.6907816988243994 -0.7108243329458964 7.160323927701377e-05 1.2120205455610316e-05 0.00016320636561566103 -2.7578579440241878e-05
 0.6907816988243994 -0.7108243329458964 0.03341943069007582 0.06713704854796489 7.160323927701377e-05 1.2120205455610316e-05 7.375257653703584e-05 -1.3649257557922797e-06
 7.160323927701377e-05 1.2120205455610316e-05 7.160323927701377e-05 1.2120205455610316e-05 0.0351869141808071 0.058158860329250196 0.5429548119540392 -0.8286541168300914
 0.000163124671040434 -2.755206512195693e-05 7.375257653703584e-05 -1.3649257557922797e-06 0.5429548119540392 -0.8286541168300914 0.0351869141808071 0.058158860329250196
2149367346.938775 0.03352018114613577 0.06719246590782449 0.6894176084976716 -0.7120553704008621 7.199573383811272e-05 1.1955818367697073e-05 0.00016392429518262576 -2.8693033699389353e-05
 0.6894176084976716 -0.7120553704008621 0.03352018114613577 0.06719246590782449 7.199573383811272e-05 1.1955818367697073e-05 7.409698131899091e-05 -1.7251007935473826e-06
 7.199573383811272e-05 1.1955818367697073e-05 7.199573383811272e-05 1.1955818367697073e-05 0.03525390403631839 0.0581664181296669 0.5409992372520546 -0.8298290356107523
 0.00016383908198993612 -2.8662004047651897e-05 7.409698131899091e-05 -1.7251007935473826e-06 0.5409992372520546 -0.8298290356107523 0.03525390403631839 0.0581664181296669
2154448979.591837 0.03362046302410454 0.06724729095963242 0.688052707144704 -0.713282783305276 7.238806955071709e-05 1.1792309395515113e-05 0.00016463837229524202 -2.9822848995095933e-05
 0.688052707144704 -0.713282783305276 0.03362046302410454 0.06724729095963242 7.238806955071709e-05 1.1792309395515113e-05 7.444082048182166e-05 -2.086272374486175e-06
 7.238806955071709e-05 1.1792309395515113e-05 7.238806955071709e-05 1.1792309395515113e-05 0.035320014518797974 0.05817346229945563 0.5390430870642813 -0.8309980594517443
 0.00016454958829878436 -2.9787202432449382e-05 7.444082048182166e-05 -2.086272374486175e-06 0.5390430870642813 -0.8309980594517443 0.035320014518797974 0.05817346229945563
2159530612.244898 0.03372026822934322 0.06730152980094471 0.6866870493917457 -0.7145065933725799 7.278025191055554e-05 1.1629732992748451e-05 0.00016534838513541174 -3.0968173975459126e-05
 0.6866870493917457 -0.7145065933725799 0.03372026822934322 0.06730152980094471 7.278025191055554e-05 1.1629732992748451e-05 7.478410880582348e-05 -2.4483694347822125e-06
 7.278025191055554e-05 1.1629732992748451e-05 7.278025191055554e-05 1.1629732992748451e-05 0.03538523639571568 0.058180003724844484 0.5370864398303368 -0.8321612232974638
 0.00016525597869224005 -3.092780780558446e-05 7.478410880582348e-05 -2.4483694347822125e-06 0.5370864398303368 -0.8321612232974638 0.03538523639571568 0.058180003724844484
2164612244.897959 0.03381958872379059 0.06735518879202215 0.6853206900367109 -0.7157268240128601 7.317228786190838e-05 1.1468143284294109e-05 0.00016605411711303184 -3.2129156801346074e-05
 0.6853206900367109 -0.7157268240128601 0.03381958872379059 0.06735518879202215 7.317228786190838e-05 1.1468143284294109e-05 7.512686269246809e-05 -2.81131986146865e-06
 7.317228786190838e-05 1.1468143284294109e-05 7.317228786190838e-05 1.1468143284294109e-05 0.03544956054572499 0.05818605360112335 0.5351293740595606 -0.8333185645400905
 0.00016595803716897727 -3.2083967219878426e-05 7.512686269246809e-05 -2.81131986146865e-06 0.5351293740595606 -0.8333185645400905 0.03544956054572499 0.05818605360112335
2169693877.55102 0.033918416532313644 0.06740827455996977 0.6839536840142143 -0.7169435003703513 7.356418585019216e-05 1.1307594005500498e-05 0.00016675534680401596 -3.330594506537921e-05
 0.6839536840142143 -0.7169435003703513 0.033918416532313644 0.06740827455996977 7.356418585019216e-05 1.1307594005500498e-05 7.546910021138064e-05 -3.1750505141347224e-06
 7.356418585019216e-05 1.1307594005500498e-05 7.356418585019216e-05 1.1307594005500498e-05 0.035512977966899735 0.05819162343561683 0.5331719682768701 -0.8344701230694959
 0.0001666555429404249 -3.3255827171870074e-05 7.546910021138064e-05 -3.1750505141347224e-06 0.5331719682768701 -0.8344701230694959 0.035512977966899735 0.05819162343561683
2174775510.2040815 0.034016743749263854 0.06746079400283204 0.6825860863590631 -0.7181566493610115 7.395595587567454e-05 1.1148138438955338e-05 0.00016745184788871193 -3.449868570825045e-05
 0.6825860863590631 -0.7181566493610115 0.034016743749263854 0.06746079400283204 7.395595587567454e-05 1.1148138438955338e-05 7.58108411480329e-05 -3.539487248455585e-06
 7.395595587567454e-05 1.1148138438955338e-05 7.395595587567454e-05 1.1148138438955338e-05 0.03557547978521014 0.058196725050537676 0.5312143009664153 -0.83561594132309
 0.00016734827037052333 -3.4443533519319586e-05 7.58108411480329e-05 -3.539487248455585e-06 0.5312143009664153 -0.83561594132309 0.03557547978521014 0.058196725050537676
2179857142.857143 0.034114562545223784 0.06751275429361894 0.6812179521681878 -0.719366299710112 7.434760954832215e-05 1.0989829348759282e-05 0.0001681433890907667 -3.570752493230938e-05
 0.6812179521681878 -0.719366299710112 0.034114562545223784 0.06751275429361894 7.434760954832215e-05 1.0989829348759282e-05 7.61521070521398e-05 -3.904554941622478e-06
 7.434760954832215e-05 1.0989829348759282e-05 7.434760954832215e-05 1.0989829348759282e-05 0.03563705726321491 0.0582013705856973 0.5292564505130022 -0.8367560643355115
 0.00016803598891594897 -3.564723139603138e-05 7.61521070521398e-05 -3.904554941622478e-06 0.5292564505130022 -0.8367560643355115 0.03563705726321491 0.0582013705856973
2184938775.510204 0.03421186517395409 0.06756416288427745 0.6798493365609494 -0.7205724819898336 7.473916014378822e-05 1.0832718912219337e-05 0.0001688297341165017 -3.693260811237837e-05
 0.6798493365609494 -0.7205724819898336 0.03421186517395409 0.06756416288427745 7.473916014378822e-05 1.0832718912219337e-05 7.6492921286751e-05 -4.270177519744072e-06
 7.473916014378822e-05 1.0832718912219337e-05 7.473916014378822e-05 1.0832718912219337e-05 0.035697701808982574 0.05820557250108098 0.5272984951412095 -0.83789053978815
 0.00016871846306686718 -3.6867065123950406e-05 7.6492921286751e-05 -4.270177519744072e-06 0.5272984951412095 -0.83789053978815 0.035697701808982574 0.05820557250108098
2190020408.163265 0.03430864397954858 0.06761502750957742 0.678480294637813 -0.7217752286567994 7.513062266054225e-05 1.0676858648896172e-05 0.0001695106415948568 -3.817407970374192e-05
 0.678480294637813 -0.7217752286567994 0.03430864397954858 0.06761502750957742 7.513062266054225e-05 1.0676858648896172e-05 7.683330907802385e-05 -4.63627798728962e-06
 7.513062266054225e-05 1.0676858648896172e-05 7.513062266054225e-05 1.0676858648896172e-05 0.03575740498524821 0.058209343579259276 0.5253405128521748 -0.8390194180583965
 0.0001693954522882736 -3.8103178122479756e-05 7.683330907802385e-05 -4.63627798728962e-06 0.5253405128521748 -0.8390194180583965 0.03575740498524821 0.058209343579259276
2195102040.8163266 0.034404891403794054 0.06766535619092663 0.6771108814373289 -0.7229745740895501 7.552201387814523e-05 1.052229934693875e-05 0.00017018586501796944 -3.943208314726001e-05
 0.6771108814373289 -0.7229745740895501 0.034404891403794054 0.06766535619092663 7.552201387814523e-05 1.052229934693875e-05 7.717329756566574e-05 -5.0027784586466065e-06
 7.552201387814523e-05 1.052229934693875e-05 7.552201387814523e-05 1.052229934693875e-05 0.03581615851879791 0.05821269692764449 0.5233825813579854 -0.8401427522686207
 0.00017006671096198817 -3.9355712814971394e-05 7.717329756566574e-05 -5.0027784586466065e-06 0.5233825813579854 -0.8401427522686207 0.03581615851879791 0.05821269692764449
2200183673.4693875 0.03450059999374184 0.06771515724010203 0.675741151891397 -0.724170554625866 7.591335241667146e-05 1.0369090986637255e-05 0.00017085515268245037 -4.0706760771557336e-05
 0.675741151891397 -0.724170554625866 0.03450059999374184 0.06771515724010203 7.591335241667146e-05 1.0369090986637255e-05 7.751291585403024e-05 -5.369600191868277e-06
 7.591335241667146e-05 1.0369090986637255e-05 7.591335241667146e-05 1.0369090986637255e-05 0.03587395431009695 0.05821564598058029 0.5214247780136384 -0.8412605983347484
 0.00017073198832936334 -4.0624810532342066e-05 7.751291585403024e-05 -5.369600191868277e-06 0.5214247780136384 -0.8412605983347484 0.03587395431009695 0.05821564598058029
2205265306.122449 0.03459576240948338 0.06776443926287669 0.6743711607787708 -0.7253632085999433 7.630465879727846e-05 1.0217282661127325e-05 0.00017151824763142565 -4.1998253692235886e-05
 0.6743711607787708 -0.7253632085999433 0.03459576240948338 0.06776443926287669 7.630465879727846e-05 1.0217282661127325e-05 7.785219506385104e-05 -5.736663624686085e-06
 7.630465879727846e-05 1.0217282661127325e-05 7.630465879727846e-05 1.0217282661127325e-05 0.035930784443142565 0.058218204501240114 0.5194671797465138 -0.8423730150144288
 0.00017139102843477636 -4.1910611413764016e-05 7.785219506385104e-05 -5.736663624686085e-06 0.5194671797465138 -0.8423730150144288 0.035930784443142565 0.058218204501240114
2210346938.77551 0.0346903714321503 0.06781321116255175 0.6730009626767682 -0.7265525763793549 7.669595550392443e-05 1.006692249417528e-05 0.00017217488759741433 -4.3306701708063165e-05
 0.6730009626767682 -0.7265525763793549 0.0346903714321503 0.06781321116255175 7.669595550392443e-05 1.006692249417528e-05 7.819116838459713e-05 -6.103888412865269e-06
 7.669595550392443e-05 1.006692249417528e-05 7.669595550392443e-05 1.006692249417528e-05 0.035986641195566 0.05822038658334182 0.5175098629833167 -0.8434800639546952
 0.00017204357006997352 -4.321325430438352e-05 7.819116838459713e-05 -6.103888412865269e-06 0.5175098629833167 -0.8434800639546952 0.035986641195566 0.05822038658334182
2215428571.428571 0.03478441997211764 0.06786148214337576 0.6716306119111478 -0.7277387004017556 7.708726704623215e-05 9.918057554975057e-06 0.00017282480494611345 -4.463224319408646e-05
 0.6716306119111478 -0.7277387004017556 0.03478441997211764 0.06786148214337576 7.708726704623215e-05 9.918057554975057e-06 7.85298711274296e-05 -6.471193470982619e-06
 7.708726704623215e-05 9.918057554975057e-06 7.708726704623215e-05 9.918057554975057e-06 0.03604151704896141 0.05822220665265883 0.5155529035744411 -0.844581809739061
 0.0001726893467193378 -4.4532876650019e-05 7.85298711274296e-05 -6.471193470982619e-06 0.5155529035744411 -0.844581809739061 0.03604151704896141 0.05822220665265883
2220510204.0816326 0.03487790107743944 0.0679092617138508 0.6702601625041213 -0.7289216252112791 7.74786200234955e-05 9.770733769886076e-06 0.00017346772662116055 -4.5975014991622574e-05
 0.6702601625041213 -0.7289216252112791 0.03487790107743944 0.0679092617138508 7.74786200234955e-05 9.770733769886076e-06 7.886834077873828e-05 -6.838497015706968e-06
 7.74786200234955e-05 9.770733769886076e-06 7.74786200234955e-05 9.770733769886076e-06 0.036095404699471915 0.05822367946832652 0.5135963767157162 -0.8456783199339708
 0.00017332808650614897 -4.586961438878932e-05 7.886834077873828e-05 -6.838497015706968e-06 0.5135963767157162 -0.8456783199339708 0.036095404699471915 0.05822367946832652
2225591836.7346935 0.034970807942494644 0.06795655968989474 0.6688896681204494 -0.7301013974945857 7.787004318982696e-05 9.62499583104025e-06 0.00017410337408995543 -4.733515229507895e-05
 0.6688896681204494 -0.7301013974945857 0.034970807942494644 0.06795655968989474 7.787004318982696e-05 9.62499583104025e-06 7.920661705423856e-05 -7.205716611665871e-06
 7.787004318982696e-05 9.62499583104025e-06 7.787004318982696e-05 9.62499583104025e-06 0.03614829706860234 0.05822482012390913 0.5116403568674671 -0.8467696651345343
 0.00017395951213991845 -4.7223601839629536e-05 7.920661705423856e-05 -7.205716611665871e-06 0.5116403568674671 -0.8467696651345343 0.03614829706860234 0.05822482012390913
2230673469.387755 0.03506313391685846 0.0680033861979005 0.6675191820116045 -0.7312780661164996 7.826156752043934e-05 9.480887101747822e-06 0.00017473146329061325 -4.871278853555323e-05
 0.6675191820116045 -0.7312780661164996 0.03506313391685846 0.0680033861979005 7.826156752043934e-05 9.480887101747822e-06 7.954474195360212e-05 -7.572769219980969e-06
 7.826156752043934e-05 9.480887101747822e-06 7.826156752043934e-05 9.480887101747822e-06 0.03620018731428222 0.05822564404826543 0.5096849176708741 -0.8478559190094669
 0.0001745833408648686 -4.859497158764242e-05 7.954474195360212e-05 -7.572769219980969e-06 0.5096849176708741 -0.8478559190094669 0.03620018731428222 0.05822564404826543
2235755102.0408163 0.035154872514398305 0.06804975167761407 0.6661487569579507 -0.732451682155185 7.865322627905603e-05 9.338449518628432e-06 0.00017535170458013295 -5.0108055261166644e-05
 0.6661487569579507 -0.732451682155185 0.035154872514398305 0.06804975167761407 7.865322627905603e-05 9.338449518628432e-06 7.98827598155973e-05 -7.93957124955847e-06
 7.865322627905603e-05 9.338449518628432e-06 7.865322627905603e-05 9.338449518628432e-06 0.03625106884216964 0.05822616700613735 0.5077301318615657 -0.8489371583451488
 0.0001751992844096403 -4.998385436624268e-05 7.98827598155973e-05 -7.93957124955847e-06 0.5077301318615657 -0.8489371583451488 0.03625106884216964 0.05822616700613735
2240836734.693877 0.035246017422592965 0.06809566688487807 0.6647784452089137 -0.7336222989368059 7.904505508644213e-05 9.197723490395627e-06 0.00017596380268385987 -5.152108201408409e-05
 0.6647784452089137 -0.7336222989368059 0.035246017422592965 0.06809566688487807 7.904505508644213e-05 9.197723490395627e-06 8.022071737371076e-05 -8.306038611221559e-06
 7.904505508644213e-05 9.197723490395627e-06 7.904505508644213e-05 9.197723490395627e-06 0.03630093531719908 0.05822640509849977 0.5057760711804132 -0.8500134630887225
 0.00017580704893830766 -5.1390378936047404e-05 8.022071737371076e-05 -8.306038611221559e-06 0.5057760711804132 -0.8500134630887225 0.03630093531719908 0.05822640509849977
2245918367.3469386 0.035336562512080304 0.0681411428942095 0.663408298421085 -0.7347899720696027 7.943709199004795e-05 9.05874779322055e-06 0.00017656745664633073 -5.295199620417718e-05
 0.663408298421085 -0.7347899720696027 0.035336562512080304 0.0681411428942095 7.943709199004795e-05 9.05874779322055e-06 8.055866381222272e-05 -8.672086774774492e-06
 7.943709199004795e-05 9.05874779322055e-06 7.943709199004795e-05 9.05874779322055e-06 0.03634978067537028 0.058226374762644445 0.5038228062814603 -0.8510849163901373
 0.00017640633500278532 -5.281467196047079e-05 8.055866381222272e-05 -8.672086774774492e-06 0.5038228062814603 -0.8510849163901373 0.03634978067537028 0.058226374762644445
2251000000.0 0.03542650184643612 0.06818619110120124 0.6620383675942673 -0.7359547594773403 7.98293775347524e-05 8.921559462603416e-06 0.0001771623597835827 -5.440092297927753e-05
 0.6620383675942673 -0.7359547594773403 0.03542650184643612 0.06818619110120124 7.98293775347524e-05 8.921559462603416e-06 8.089665082270212e-05 -9.0376308290856e-06
 7.98293775347524e-05 8.921559462603416e-06 7.98293775347524e-05 8.921559462603416e-06 0.036397599135786 0.05822609277197807 0.5018704066369964 -0.8521516046430565
 0.00017699683749671066 -5.425685787797189e-05 8.089665082270212e-05 -9.0376308290856e-06 0.5018704066369964 -0.8521516046430565 0.036397599135786 0.05822609277197807
2256081632.653061 0.035515829692175316 0.06823082322474056 0.660668703005372 -0.7371167214320395 8.022195483469695e-05 8.786193681675987e-06 0.00017774819963701867 -5.5867985091986464e-05
 0.660668703005372 -0.7371167214320395 0.035515829692175316 0.06823082322474056 8.022195483469695e-05 8.786193681675987e-06 8.123473266089128e-05 -9.402585545285318e-06
 8.022195483469695e-05 8.786193681675987e-06 8.022195483469695e-05 8.786193681675987e-06 0.03644438521292821 0.058225576235537 0.49991894043966423 -0.8532136175245159
 0.00017757824561089107 -5.571705877092224e-05 8.123473266089128e-05 -9.402585545285318e-06 0.49991894043966423 -0.8532136175245159 0.03644438521292821 0.058225576235537
2261163265.3061223 0.03560454052898869 0.06827505130902278 0.6592993541401878 -0.7382759205859489 8.061486964619345e-05 8.652683665863831e-06 0.000178324657928917 -5.735330276298809e-05
 0.6592993541401878 -0.7382759205859489 0.03560454052898869 0.06827505130902278 8.061486964619345e-05 8.652683665863831e-06 8.157296620394226e-05 -9.766865443168164e-06
 8.061486964619345e-05 8.652683665863831e-06 8.061486964619345e-05 8.652683665863831e-06 0.03649013372917575 0.05822484259717933 0.49796847450163173 -0.8542710480332548
 0.0001781502427904038 -5.71953942310424e-05 8.157296620394226e-05 -9.766865443168164e-06 0.49796847450163173 -0.8542710480332548 0.03649013372917575 0.05822484259717933
2266244897.9591837 0.03569262906020518 0.06831888772537674 0.6579303696229414 -0.7394324220026726 8.100817044169406e-05 8.521060543832063e-06 0.0001788914105196809 -5.885699354082866e-05
 0.6579303696229414 -0.7394324220026726 0.03569262906020518 0.06831888772537674 8.100817044169406e-05 8.521060543832063e-06 8.191141100797061e-05 -1.01303848608967e-05
 8.100817044169406e-05 8.521060543832063e-06 8.100817044169406e-05 8.521060543832063e-06 0.036534839827563365 0.05822390963448553 0.496019074150727 -0.8553239925266015
 0.00017871250669344196 -5.869198122137091e-05 8.191141100797061e-05 -1.01303848608967e-05 0.496019074150727 -0.8553239925266015 0.036534839827563365 0.05822390963448553
2271326530.6122446 0.035780090223495924 0.06836234517385982 0.6565617971436529 -0.7405862931874033 8.140190848480343e-05 8.391353234641586e-06 0.0001794481273669203 -6.037917215811817e-05
 0.6565617971436529 -0.7405862931874033 0.035780090223495924 0.06836234517385982 8.140190848480343e-05 8.391353234641586e-06 8.225012936588487e-05 -1.0493058028101697e-05
 8.140190848480343e-05 8.391353234641586e-06 8.140190848480343e-05 8.391353234641586e-06 0.036578498984791014 0.05822279545731195 0.4940708031235492 -0.8563725507558333
 0.00017926470915199903 -6.020693393472376e-05 8.225012936588487e-05 -1.0493058028101697e-05 0.4940708031235492 -0.8563725507558333 0.036578498984791014 0.05822279545731195
2276408163.265306 0.03586691920179739 0.06840543668462563 0.6551936833832389 -0.7417376041161494 8.179613790631458e-05 8.263588321040687e-06 0.0001799944724864621 -6.191995038411178e-05
 0.6551936833832389 -0.7417376041161494 0.03586691920179739 0.06840543668462563 8.179613790631458e-05 8.263588321040687e-06 8.258918636545027e-05 -1.0854799142476372e-05
 8.179613790631458e-05 8.263588321040687e-06 8.179613790631458e-05 8.263588321040687e-06 0.03662110702445382 0.058221518505998826 0.492123723455496 -0.8574168258998601
 0.0001798065161344852 -6.174036364860236e-05 8.258918636545027e-05 -1.0854799142476372e-05 0.492123723455496 -0.8574168258998601 0.03662110702445382 0.058221518505998826
2281489795.9183674 0.03595311143447121 0.06844817561905801 0.6538260739363225 -0.7428864272639134 8.219091578125049e-05 8.137789918816232e-06 0.00018053010391538965 -6.347943687363809e-05
 0.6538260739363225 -0.7428864272639134 0.03595311143447121 0.06844817561905801 8.219091578125049e-05 8.137789918816232e-06 8.292864994754444e-05 -1.1215522449966292e-05
 8.219091578125049e-05 8.137789918816232e-06 8.219091578125049e-05 8.137789918816232e-06 0.03666266013052287 0.058220097549235184 0.49017789536766515 -0.8584569245971516
 0.0001803375877103765 -6.32923785765192e-05 8.292864994754444e-05 -1.1215522449966292e-05 0.49017789536766515 -0.8584569245971516 0.03666266013052287 0.058220097549235184
2286571428.5714283 0.03603866262869799 0.06849057567063671 0.652459013231754 -0.7440328376317474 8.258630220688641e-05 8.013979542134856e-06 0.0001810546736772145 -6.505773701232317e-05
 0.652459013231754 -0.7440328376317474 0.03603866262869799 0.06849057567063671 8.258630220688641e-05 8.013979542134856e-06 8.326859096455853e-05 -1.1575142328649683e-05
 8.258630220688641e-05 8.013979542134856e-06 8.258630220688641e-05 8.013979542134856e-06 0.036703154861054 0.058218551681528126 0.4882333771506337 -0.859492956975806
 0.0001808575780169968 -6.48630837156911e-05 8.326859096455853e-05 -1.1575142328649683e-05 0.4882333771506337 -0.859492956975806 0.036703154861054 0.058218551681528126
2291653061.2244897 0.036123568771095724 0.06853265086556004 0.6510925444507606 -0.7451769127725654 8.298236038173075e-05 7.892175964792359e-06 0.00018156782774927715 -6.665495275809002e-05
 0.6510925444507606 -0.7451769127725654 0.036123568771095724 0.06853265086556004 8.298236038173075e-05 7.892175964792359e-06 8.36090832388944e-05 -1.1933573376418189e-05
 8.298236038173075e-05 7.892175964792359e-06 8.298236038173075e-05 7.892175964792359e-06 0.03674258816212908 0.05821690032031667 0.4862902250450293 -0.8605250366815904
 0.0001813661352285288 -6.645258069108093e-05 8.36090832388944e-05 -1.1933573376418189e-05 0.4862902250450293 -0.8605250366815904 0.03674258816212908 0.05821690032031667
2296734693.877551 0.03620782613957506 0.06857441556306841 0.6497267094427612 -0.7463187328156607 8.337915668543511e-05 7.772395077305306e-06 0.0001820692060324857 -6.827118247887793e-05
 0.6497267094427612 -0.7463187328156607 0.03620782613957506 0.06857441556306841 8.337915668543511e-05 7.772395077305306e-06 8.395020362150688e-05 -1.229073050255279e-05
 8.337915668543511e-05 7.772395077305306e-06 8.337915668543511e-05 7.772395077305306e-06 0.03678095738202947 0.058215163202655545 0.4843484931189351 -0.8615532809038754
 0.00018186290152736112 -6.806096759573385e-05 8.395020362150688e-05 -1.229073050255279e-05 0.4843484931189351 -0.8615532809038754 0.03678095738202947 0.058215163202655545
2301816326.530612 0.03629143131541371 0.06861588445549174 0.6483615486387648 -0.7474583804898339 8.377676075960966e-05 7.654649739765229e-06 0.000182558442323501 -6.990652078656427e-05
 0.6483615486387648 -0.7474583804898339 0.03629143131541371 0.06861588445549174 8.377676075960966e-05 7.654649739765229e-06 8.429203205043998e-05 -1.2646529023306099e-05
 8.377676075960966e-05 7.654649739765229e-06 8.377676075960966e-05 7.654649739765229e-06 0.03681826028562634 0.05821336038150783 0.4824082331420349 -0.8625778103993119
 0.00018234751307787765 -6.968833882739146e-05 8.429203205043998e-05 -1.2646529023306099e-05 0.4824082331420349 -0.8625778103993119 0.03681826028562634 0.05821336038150783
2306897959.1836734 0.03637438119557577 0.06865707256797911 0.6469971009623575 -0.7485959411450427 8.417524558951029e-05 7.538949630385402e-06 0.00018303516428947152 -7.156105836704312e-05
 0.6469971009623575 -0.7485959411450427 0.03637438119557577 0.06865707256797911 8.417524558951029e-05 7.538949630385402e-06 8.463465160929836e-05 -1.3000884761592841e-05
 8.417524558951029e-05 7.538949630385402e-06 8.417524558951029e-05 7.538949630385402e-06 0.03685449506901032 0.05821151222158553 0.4804694944565165 -0.8635987495131386
 0.00018281960000279194 -7.13347849213412e-05 8.463465160929836e-05 -1.3000884761592841e-05 0.4804694944565165 -0.8635987495131386 0.03685449506901032 0.05821151222158553
2311979591.836735 0.036456673005230464 0.06869799525792195 0.6456334037382448 -0.7497315027724663 8.457468758656564e-05 7.4253010896662176e-06 0.00018349899344543384 -7.323488180643481e-05
 0.6456334037382448 -0.7497315027724663 0.036456673005230464 0.06869799525792195 8.457468758656564e-05 7.4253010896662176e-06 8.497814858559802e-05 -1.3353714150897585e-05
 8.457468758656564e-05 7.4253010896662176e-06 8.457468758656564e-05 7.4253010896662176e-06 0.036889660374312544 0.05820963939476275 0.4785323238447001 -0.8646162261979639
 0.0001832787863621389 -7.300039237947293e-05 8.497814858559802e-05 -1.3353714150897585e-05 0.4785323238447001 -0.8646162261979639 0.036889660374312544 0.05820963939476275
2317061224.4897957 0.036538304310522005 0.06873866821403236 0.6442704925983324 -0.750865156022916 8.497516667171044e-05 7.313706960107789e-06 0.0001839495451344872 -7.49280734133914e-05
 0.6442704925983324 -0.750865156022916 0.036538304310522005 0.06873866821403236 8.497516667171044e-05 7.313706960107789e-06 8.532261252893309e-05 -1.3704934343506393e-05
 8.497516667171044e-05 7.313706960107789e-06 8.497516667171044e-05 7.313706960107789e-06 0.036923755304765944 0.05820776287501285 0.4765967653933722 -0.8656303720299028
 0.0001837246901350316 -7.468524349551392e-05 8.532261252893309e-05 -1.3704934343506393e-05 0.4765967653933722 -0.8656303720299028 0.036923755304765944 0.05820776287501285
2322142857.142857 0.03661927303154087 0.06877910745509494 0.642908401385318 -0.7519969942234614 8.537676635948739e-05 7.204166421397133e-06 0.0001843864285108584 -7.664071103747339e-05
 0.642908401385318 -0.7519969942234614 0.03661927303154087 0.06877910745509494 8.537676635948739e-05 7.204166421397133e-06 8.566813630889678e-05 -1.4054463323173877e-05
 8.537676635948739e-05 7.204166421397133e-06 8.537676635948739e-05 7.204166421397133e-06 0.0369567794399543 0.05820590393288577 0.47466286035480404 -0.866641322221909
 0.00018415692320429712 -7.638941617641396e-05 8.566813630889678e-05 -1.4054463323173877e-05 0.47466286035480404 -0.866641322221909 0.0369567794399543 0.05820590393288577
2327224489.795918 0.036699577455527585 0.06881932932832331 0.6415471620537778 -0.7531271133922038 8.577957384287826e-05 7.096674821000637e-06 0.00018480924652597119 -7.837286788356459e-05
 0.6415471620537778 -0.7531271133922038 0.036699577455527585 0.06881932932832331 8.577957384287826e-05 7.096674821000637e-06 8.601481617268867e-05 -1.4402220022333822e-05
 8.577957384287826e-05 7.096674821000637e-06 8.577957384287826e-05 7.096674821000637e-06 0.03698873285127724 0.0582040841294667 0.4727306470044532 -0.8676492156341781
 0.00018457509134410242 -7.811298375985252e-05 8.601481617268867e-05 -1.4402220022333822e-05 0.4727306470044532 -0.8676492156341781 0.03698873285127724 0.0582040841294667
2332306122.4489794 0.03677921625027964 0.06885935050737683 0.6401868045687398 -0.7542556122510741 8.618368007882332e-05 6.991223500091424e-06 0.0001852175959176398 -8.012461232230323e-05
 0.6401868045687398 -0.7542556122510741 0.03677921625027964 0.06885935050737683 8.618368007882332e-05 6.991223500091424e-06 8.63627518023402e-05 -1.4748124443966826e-05
 8.618368007882332e-05 6.991223500091424e-06 8.618368007882332e-05 6.991223500091424e-06 0.037019616117602926 0.05820232530985081 0.4708001604953295 -0.86865419478146
 0.0001849787942106895 -7.985601482784524e-05 8.63627518023402e-05 -1.4748124443966826e-05 0.4708001604953295 -0.86865419478146 0.037019616117602926 0.05820232530985081
2337387755.102041 0.036858188477783695 0.06889918798996125 0.6388273568017049 -0.7553825922365325 8.658917987438387e-05 6.887799614741664e-06 0.00018561106720250132 -8.189600769650086e-05
 0.6388273568017049 -0.7553825922365325 0.036858188477783695 0.06889918798996125 8.658917987438387e-05 6.887799614741664e-06 8.671204637148477e-05 -1.5092097788236984e-05
 8.658917987438387e-05 6.887799614741664e-06 8.658917987438387e-05 6.887799614741664e-06 0.03704943034111916 0.05820064959607752 0.46887143270901266 -0.8696564058371035
 0.00018536762533632903 -8.161857301642307e-05 8.671204637148477e-05 -1.5092097788236984e-05 0.46887143270901266 -0.8696564058371035 0.03704943034111916 0.05820064959607752
2342469387.7551017 0.036936493608049695 0.06893885909502902 0.637468844424131 -0.7565081575081007 8.699617197350288e-05 6.786385952314395e-06 0.0001859892446718113 -8.368711212352821e-05
 0.637468844424131 -0.7565081575081007 0.036936493608049695 0.06893885909502902 8.699617197350288e-05 6.786385952314395e-06 8.706280660159903e-05 -1.5434062584010828e-05
 8.699617197350288e-05 6.786385952314395e-06 8.699617197350288e-05 6.786385952314395e-06 0.037078177163364576 0.058199079379524975 0.46694449210332717 -0.8706559986337206
 0.0001857411721266195 -8.340071682136543e-05 8.706280660159903e-05 -1.5434062584010828e-05 0.46694449210332717 -0.8706559986337206 0.037078177163364576 0.058199079379524975
2347551020.408163 0.037014131533149405 0.06897838145955434 0.6361112907983556 -0.7576324149545908 8.740475914431355e-05 6.686960742986879e-06 0.00018635170639072471 -8.549797829364687e-05
 0.6361112907983556 -0.7576324149545908 0.037014131533149405 0.06897838145955434 8.740475914431355e-05 6.686960742986879e-06 8.741514281763718e-05 -1.577394282537376e-05
 8.740475914431355e-05 6.686960742986879e-06 8.740475914431355e-05 6.686960742986879e-06 0.03710585878143573 0.058197637312741454 0.4650193635566806 -0.8716531266602928
 0.00018609901586124432 -8.520249939996557e-05 8.741514281763718e-05 -1.577394282537376e-05 0.4650193635566806 -0.8716531266602928 0.03710585878143573 0.058197637312741454
2352632653.0612245 0.037091102581449514 0.06901777303487665 0.6347547168659404 -0.7587554741978886 8.781504826694393e-05 6.589497466339619e-06 0.00018669802420117989 -8.732865326426213e-05
 0.6347547168659404 -0.7587554741978886 0.037091102581449514 0.06901777303487665 8.781504826694393e-05 6.589497466339619e-06 8.776916900297564e-05 -1.6111664113258996e-05
 8.781504826694393e-05 6.589497466339619e-06 8.781504826694393e-05 6.589497466339619e-06 0.03713247796435754 0.05819634630071168 0.4630960682090423 -0.872647947055509
 0.00018644073169830908 -8.702396836880707e-05 8.776916900297564e-05 -1.6111664113258996e-05 0.4630960682090423 -0.872647947055509 0.03713247796435754 0.05819634630071168
2357714285.7142854 0.03716740753205786 0.06905705208257895 0.6333991410334427 -0.759877447594232 8.82271504217639e-05 6.493964652949012e-06 0.00018702776372851544 -8.9179178250085e-05
 0.6333991410334427 -0.759877447594232 0.03716740753205786 0.06905705208257895 8.82271504217639e-05 6.493964652949012e-06 8.812500285358651e-05 -1.6447153802305798e-05
 8.82271504217639e-05 6.493964652949012e-06 8.82271504217639e-05 6.493964652949012e-06 0.03715803806963001 0.058195229491518605 0.46117462329959175 -0.8736406205972399
 0.00018676588868238024 -8.88651655975386e-05 8.812500285358651e-05 -1.6447153802305798e-05 0.46117462329959175 -0.8736406205972399 0.03715803806963001 0.058195229491518605
2362795918.367347 0.03724304762944311 0.06909623716988973 0.6320445790556044 -0.7609984502328124 8.864118097801771e-05 6.400325680920435e-06 0.00018734048439194548 -9.104958840918203e-05
 0.6320445790556044 -0.7609984502328124 0.03724304762944311 0.06909623716988973 8.864118097801771e-05 6.400325680920435e-06 8.848276583135228e-05 -1.6780341153063358e-05
 8.864118097801771e-05 6.400325680920435e-06 8.864118097801771e-05 6.400325680920435e-06 0.03718254305991503 0.05819431026638747 0.45925504200103584 -0.8746313116879276
 0.00018707404975635156 -9.072612699862802e-05 8.848276583135228e-05 -1.6780341153063358e-05 0.45925504200103584 -0.8746313116879276 0.03718254305991503 0.05819431026638747
2367877551.020408 0.037318024598236875 0.06913534716460766 0.6306910439159645 -0.7621185999315874 8.905725968277989e-05 6.308538567300427e-06 0.00018763573941901412 -9.293991262489925e-05
 0.6306910439159645 -0.7621185999315874 0.037318024598236875 0.06913534716460766 8.905725968277989e-05 6.308538567300427e-06 8.884258321642942e-05 -1.711115748965915e-05
 8.905725968277989e-05 6.308538567300427e-06 8.905725968277989e-05 6.308538567300427e-06 0.037205997519857946 0.05819361222911928 0.45733733325062326 -0.8756201883357048
 0.00018736477177725466 -9.260688231308303e-05 8.884258321642942e-05 -1.711115748965915e-05 0.45733733325062326 -0.8756201883357048 0.037205997519857946 0.05819361222911928
2372959183.673469 0.03739234065822821 0.0691744012295109 0.6293385457048843 -0.7632380172301928 8.94755107501749e-05 6.218555754311435e-06 0.00018791307586416624 -9.485017328364573e-05
 0.6293385457048843 -0.7632380172301928 0.03739234065822821 0.0691744012295109 8.94755107501749e-05 6.218555754311435e-06 8.920458415857162e-05 -1.7439536363048638e-05
 8.94755107501749e-05 6.218555754311435e-06 8.94755107501749e-05 6.218555754311435e-06 0.0372284066730615 0.05819315919486401 0.4554215015778548 -0.8766074221311062
 0.00018763760553614588 -9.450745489212512e-05 8.920458415857162e-05 -1.7439536363048638e-05 0.4554215015778548 -0.8766074221311062 0.0372284066730615 0.05819315919486401
2378040816.3265305 0.03746599853950512 0.06921341881624452 0.627987091494991 -0.7643568253797912 8.989606295079137e-05 6.130323890348685e-06 0.0001881720346315512 -9.678038604852806e-05
 0.627987091494991 -0.7643568253797912 0.03746599853950512 0.06921341881624452 8.989606295079137e-05 6.130323890348685e-06 8.956890172731163e-05 -1.7765413719968268e-05
 8.989606295079137e-05 6.130323890348685e-06 8.989606295079137e-05 6.130323890348685e-06 0.03724977639915383 0.058192975178233665 0.4535075469289242 -0.8775931882191305
 0.0001878920957821867 -9.642786147480828e-05 8.956890172731163e-05 -1.7765413719968268e-05 0.4535075469289242 -0.8775931882191305 0.03724977639915383 0.058192975178233665
2383122448.979592 0.03753900149780436 0.06925241965865869 0.6266366852140508 -0.7654751503297692 9.031904970122636e-05 6.0437836056888e-06 0.00018841215050220366 -9.87305596288202e-05
 0.6266366852140508 -0.7654751503297692 0.03753900149780436 0.06925241965865869 9.031904970122636e-05 6.0437836056888e-06 8.993567296090732e-05 -1.8088728077707756e-05
 9.031904970122636e-05 6.0437836056888e-06 9.031904970122636e-05 6.0437836056888e-06 0.03727011325101096 0.058193084380728274 0.4515954644879073 -0.8785776652665236
 0.00018812778125105477 -9.83681119615703e-05 8.993567296090732e-05 -1.8088728077707756e-05 0.4515954644879073 -0.8785776652665236 0.03727011325101096 0.058193084380728274
2388204081.6326528 0.03761135332994787 0.0692914237655844 0.6252873275152904 -0.7665931207110988 9.074460915368268e-05 5.958869282854021e-06 0.0001886329521657188 -0.00010070069554526278
 0.6252873275152904 -0.7665931207110988 0.03761135332994787 0.0692914237655844 9.074460915368268e-05 5.958869282854021e-06 9.030503891394387e-05 -1.840942070482447e-05
 9.074460915368268e-05 5.958869282854021e-06 9.074460915368268e-05 5.958869282854021e-06 0.03728942447201527 0.05819351117745574 0.44968524449475933 -0.8795610354240415
 0.0001883441946978006 -0.00010032820918370922 9.030503891394387e-05 -1.840942070482447e-05 0.44968524449475933 -0.8795610354240415 0.03728942447201527 0.05819351117745574
2393285714.285714 0.03768305838949483 0.06933045141305101 0.6239390156451514 -0.767710867816224 9.117288428554738e-05 5.875508821581328e-06 0.00018883396225655556 -0.00010269078789118754
 0.6239390156451514 -0.767710867816224 0.03768305838949483 0.06933045141305101 9.117288428554738e-05 5.875508821581328e-06 9.067714470348787e-05 -1.8727435807921227e-05
 9.117288428554738e-05 5.875508821581328e-06 9.117288428554738e-05 5.875508821581328e-06 0.03730771801345956 0.058194280103156165 0.4477768720601162 -0.8805434842834806
 0.00018854086293428052 -0.0001023081486687833 9.067714470348787e-05 -1.8727435807921227e-05 0.4477768720601162 -0.8805434842834806 0.03730771801345956 0.058194280103156165
2398367346.9387755 0.0377541216024884 0.06936952313587526 0.6225917433085205 -0.7688285255754069 9.160402298887464e-05 5.793623398353678e-06 0.00018901469739511075 -0.00010470082308945235
 0.6225917433085205 -0.7688285255754069 0.0377541216024884 0.06936952313587526 9.160402298887464e-05 5.793623398353678e-06 9.105213955368693e-05 -1.9042720724604182e-05
 9.160402298887464e-05 5.793623398353678e-06 9.160402298887464e-05 5.793623398353678e-06 0.03732500255198805 0.058195415837457874 0.44587032697696716 -0.8815252008293818
 0.00018871730687130308 -0.00010430791840192058 9.105213955368693e-05 -1.9042720724604182e-05 0.44587032697696716 -0.8815252008293818 0.03732500255198805 0.058195415837457874
2403448979.5918365 0.03782454848335927 0.06940865971865673 0.6212455005314409 -0.769946230529263 9.203817815968728e-05 5.713127220440371e-06 0.00018917466823367623 -0.00010673077964519247
 0.6212455005314409 -0.769946230529263 0.03782454848335927 0.06940865971865673 9.203817815968728e-05 5.713127220440371e-06 9.143017683869577e-05 -1.9355226122748266e-05
 9.203817815968728e-05 5.713127220440371e-06 9.203817815968728e-05 5.713127220440371e-06 0.03734128750711726 0.05819694318939946 0.4439655835292419 -0.8825063773850439
 0.00018887304156559986 -0.00010632749858304541 9.143017683869577e-05 -1.9355226122748266e-05 0.4439655835292419 -0.8825063773850439 0.03734128750711726 0.05819694318939946
2408530612.244898 0.037894345150915436 0.06944788218611374 0.6199002735213418 -0.7710641217974327 9.247550778701431e-05 5.633927274410984e-06 0.00018931337950743013 -0.00010878062789437613
 0.6199002735213418 -0.7710641217974327 0.037894345150915436 0.06944788218611374 9.247550778701431e-05 5.633927274410984e-06 9.18114141238171e-05 -1.9664906206186083e-05
 9.247550778701431e-05 5.633927274410984e-06 9.247550778701431e-05 5.633927274410984e-06 0.03735658305877668 0.05819888708115529 0.44206261029737837 -0.883487209552761
 0.00018900757627176318 -0.0001083668613800088 9.18114141238171e-05 -1.9664906206186083e-05 0.44206261029737837 -0.883487209552761 0.03735658305877668 0.05819888708115529
2413612244.897959 0.03796351834448626 0.06948721179279359 0.6185560445247719 -0.772182341043197 9.291617504157732e-05 5.555923069077284e-06 0.00018943033009058042 -0.00011085032974817019
 0.6185560445247719 -0.772182341043197 0.03796351834448626 0.06948721179279359 9.291617504157732e-05 5.555923069077284e-06 9.219601320473601e-05 -1.997171892694721e-05
 9.291617504157732e-05 5.555923069077284e-06 9.291617504157732e-05 5.555923069077284e-06 0.03737090016491822 0.05820127253099758 0.44016136996087324 -0.8844678961480158
 0.0001891204144992698 -0.000110425970677632 9.219601320473601e-05 -1.997171892694721e-05 0.44016136996087324 -0.8844678961480158 0.03737090016491822 0.05820127253099758
2418693877.55102 0.03803207544012111 0.06952667001208059 0.6172127916827315 -0.7733010324339014 9.336034836403235e-05 5.479006372831836e-06 0.00018952501305780604 -0.00011293983843310833
 0.6172127916827315 -0.7733010324339014 0.03803207544012111 0.06952667001208059 9.336034836403235e-05 5.479006372831836e-06 9.258414014472527e-05 -2.0275626204165102e-05
 9.336034836403235e-05 5.479006372831836e-06 9.336034836403235e-05 5.479006372831836e-06 0.0373842505791005 0.058204124635418096 0.43826181909796236 -0.8854486391274401
 0.00018921105407472658 -0.0001125047818226556 9.258414014472527e-05 -2.0275626204165102e-05 0.43826181909796236 -0.8854486391274401 0.0373842505791005 0.058204124635418096
2423775510.2040815 0.0381000244669083 0.06956627852451942 0.6158704888835821 -0.7744203425969813 9.380820155266981e-05 5.40306094534501e-06 0.00018959691575111572 -0.00011504909822706394
 0.6158704888835821 -0.7744203425969813 0.0381000244669083 0.06956627852451942 9.380820155266981e-05 5.40306094534501e-06 9.297596530969247e-05 -2.0576594149776915e-05
 9.380820155266981e-05 5.40306094534501e-06 9.380820155266981e-05 5.40306094534501e-06 0.0373966468681039 0.05820746855043227 0.43636390798244057 -0.8864296435102607
 0.00018927898720945722 -0.00011460324136459658 9.297596530969247e-05 -2.0576594149776915e-05 0.43636390798244057 -0.8864296435102607 0.0373966468681039 0.05820746855043227
2428857142.857143 0.03816737412334477 0.06960605920542268 0.6145291056135719 -0.775540420571508 9.425991385047887e-05 5.327962263591352e-06 0.00018964551985226752 -0.00011717804419103699
 0.6145291056135719 -0.775540420571508 0.03816737412334477 0.06960605920542268 9.425991385047887e-05 5.327962263591352e-06 9.337166340094317e-05 -2.0874593301139534e-05
 9.425991385047887e-05 5.327962263591352e-06 9.425991385047887e-05 5.327962263591352e-06 0.03740810242950708 0.05821132947203139 0.43446758037768457 -0.8874111172931053
 0.00018932370057256565 -0.00011672128679252408 9.337166340094317e-05 -2.0874593301139534e-05 0.43446758037768457 -0.8874111172931053 0.03740810242950708 0.05821132947203139
2433938775.510204 0.038234133793776784 0.06964603411174562 0.6131886068050924 -0.7766614177550111 9.471567003146567e-05 5.253577242182408e-06 0.00018967030146087795 -0.00011932660189673725
 0.6131886068050924 -0.7766614177550111 0.038234133793776784 0.06964603411174562 9.471567003146567e-05 5.253577242182408e-06 9.377141348552161e-05 -2.116959886067713e-05
 9.471567003146567e-05 5.253577242182408e-06 9.471567003146567e-05 5.253577242182408e-06 0.03741863150922953 0.058215732615772404 0.4325727733280609 -0.8883932713578458
 0.00018934467536960094 -0.00011885884626773757 9.377141348552161e-05 -2.116959886067713e-05 0.4325727733280609 -0.8883932713578458 0.03741863150922953 0.058215732615772404
2439020408.163265 0.038300313564898714 0.06968622546818883 0.611848952682581 -0.7777834878454499 9.517566048612567e-05 5.179763947974825e-06 0.0001896707311783498 -0.00012149468714999175
 0.611848952682581 -0.7777834878454499 0.038300313564898714 0.06968622546818883 9.517566048612567e-05 5.179763947974825e-06 9.417539902399496e-05 -2.146159094269253e-05
 9.517566048612567e-05 5.179763947974825e-06 9.517566048612567e-05 5.179763947974825e-06 0.03742824921903775 0.05822070319546141 0.4306794169476393 -0.8893763193722898
 0.0001893413874269487 -0.00012101583835237516 9.417539902399496e-05 -2.146159094269253e-05 0.4306794169476393 -0.8893763193722898 0.03742824921903775 0.05822070319546141
2444102040.816326 0.038365924242266876 0.06972665565255379 0.6105100986062502 -0.7789067867781725 9.564008130595412e-05 5.106371308941022e-06 0.00018964627419775662 -0.00012368220570996017
 0.6105100986062502 -0.7789067867781725 0.038365924242266876 0.06972665565255379 9.564008130595412e-05 5.106371308941022e-06 9.45838078955386e-05 -2.1750554827456307e-05
 9.564008130595412e-05 5.106371308941022e-06 9.564008130595412e-05 5.106371308941022e-06 0.03743697155395057 0.05822626640096464 0.4287874342064722 -0.890360477683495
 0.00018931330728207897 -0.00012319217173393713 9.45838078955386e-05 -2.1750554827456307e-05 0.4287874342064722 -0.890360477683495 0.03743697155395057 0.05822626640096464
2449183673.4693875 0.038430977366851686 0.06976734718026377 0.6091719949136165 -0.7800314726576524 9.610913436688156e-05 5.0332388172849716e-06 0.00018959639039981422 -0.00012588905300416764
 0.6091719949136165 -0.7800314726576524 0.038430977366851686 0.06976734718026377 9.610913436688156e-05 5.0332388172849716e-06 9.499683242017882e-05 -2.2036481222697254e-05
 9.610913436688156e-05 5.0332388172849716e-06 9.610913436688156e-05 5.0332388172849716e-06 0.03744481540957713 0.05823244737505735 0.4268967407144408 -0.8913459652034391
 0.0001892599002797772 -0.00012538774494573482 9.499683242017882e-05 -2.2036481222697254e-05 0.4268967407144408 -0.8913459652034391 0.03744481540957713 0.05823244737505735
2454265306.122449 0.03849548523157751 0.0698083226881058 0.6078345867589139 -0.7811577056838577 9.658302741151549e-05 4.9601962267879296e-06 0.00018952053445506662 -0.00012811511383936525
 0.6078345867589139 -0.7811577056838577 0.03849548523157751 0.0698083226881058 9.658302741151549e-05 4.9601962267879296e-06 9.5414669378044e-05 -2.231936653261974e-05
 9.658302741151549e-05 4.9601962267879296e-06 9.658302741151549e-05 4.9601962267879296e-06 0.03745179859931793 0.0582392711893712 0.4250072445028008 -0.8923330032868116
 0.0001891806266744801 -0.0001276024460832752 9.5414669378044e-05 -2.231936653261974e-05 0.4250072445028008 -0.8923330032868116 0.03745179859931793 0.0582392711893712
2459346938.77551 0.038559460897876166 0.06984960491708901 0.6064978139504604 -0.7822856480730496 9.706197413006131e-05 4.887063244382246e-06 0.00018941815593242068 -0.00013036026210820707
 0.6064978139504604 -0.7822856480730496 0.038559460897876166 0.06984960491708901 9.706197413006131e-05 4.887063244382246e-06 9.58375200254715e-05 -2.2599213134562925e-05
 9.706197413006131e-05 4.887063244382246e-06 9.706197413006131e-05 4.887063244382246e-06 0.037457939871458804 0.05824676281933526 0.4231188458035584 -0.8933218156006826
 0.0001890749417388431 -0.000129836152516573 9.58375200254715e-05 -2.2599213134562925e-05 0.4231188458035584 -0.8933218156006826 0.037457939871458804 0.05824676281933526
2464428571.428571 0.038622918212183395 0.06989121669448353 0.6051616107860232 -0.7834154639728586 9.754619423979882e-05 4.813649215944403e-06 0.0001892886994141582 -0.00013262436049176748
 0.6051616107860232 -0.7834154639728586 0.038622918212183395 0.06989121669448353 9.754619423979882e-05 4.813649215944403e-06 9.626559010781708e-05 -2.287602966342963e-05
 9.754619423979882e-05 4.813649215944403e-06 9.754619423979882e-05 4.813649215944403e-06 0.037463258926078935 0.05825494711818164 0.4212314368267669 -0.8943126279858117
 0.0001889422958786627 -0.00013208873059840966 9.626559010781708e-05 -2.287602966342963e-05 0.4212314368267669 -0.8943126279858117 0.037463258926078935 0.05825494711818164
2469510204.0816326 0.038685871822403926 0.06993318091494034 0.6038259058862923 -0.7845473193714151 9.803591356297925e-05 4.739752806315783e-06 0.00018913160461756656 -0.00013490726015787766
 0.6038259058862923 -0.7845473193714151 0.038685871822403926 0.06993318091494034 9.803591356297925e-05 4.739752806315783e-06 9.669908986880778e-05 -2.3149831303997802e-05
 9.803591356297925e-05 4.739752806315783e-06 9.803591356297925e-05 4.739752806315783e-06 0.037467776431790875 0.058263848789916944 0.41934490153591325 -0.8953056683093134
 0.00018878213475428943 -0.00013436003536852653 9.669908986880778e-05 -2.3149831303997802e-05 0.41934490153591325 -0.8953056683093134 0.037467776431790875 0.058263848789916944
2474591836.7346935 0.03874833719432929 0.06997552052074031 0.602490622026486 -0.7856813820003734 9.853136410300202e-05 4.6651616735468165e-06 0.0001889463065232871 -0.00013720880045530926
 0.602490622026486 -0.7856813820003734 0.03874833719432929 0.06997552052074031 9.853136410300202e-05 4.6651616735468165e-06 9.713823405626896e-05 -2.3420640091244995e-05
 9.853136410300202e-05 4.6651616735468165e-06 9.853136410300202e-05 4.6651616735468165e-06 0.0374715140422918 0.05827349236130939 0.41745911542147385 -0.896301166308445
 0.00018859389940862074 -0.00013664991025377172 9.713823405626896e-05 -2.3420640091244995e-05 0.41745911542147385 -0.896301166308445 0.0374715140422918 0.05827349236130939
2479673469.387755 0.03881033062795453 0.0700182584810834 0.6011556759662477 -0.7868178212316268 9.903278411873322e-05 4.589652137387235e-06 0.00018873223551054663 -0.0001395288086037816
 0.6011556759662477 -0.7868178212316268 0.03881033062795453 0.0700182584810834 9.903278411873322e-05 4.589652137387235e-06 9.758324192406679e-05 -2.3688485218793907e-05
 9.903278411873322e-05 4.589652137387235e-06 9.903278411873322e-05 4.589652137387235e-06 0.037474494412673025 0.058283902152814614 0.4155739452728737 -0.8972993534252446
 0.00018837702640183695 -0.00013895818676418596 9.758324192406679e-05 -2.3688485218793907e-05 0.4155739452728737 -0.8972993534252446 0.037474494412673025 0.058283902152814614
2484755102.0408163 0.03887186927368883 0.07006141777046458 0.5998209782778118 -0.7879568079675172 9.95404181968163e-05 4.5129888420269244e-06 0.00018848881749937326 -0.00014186709937981623
 0.5998209782778118 -0.7879568079675172 0.03887186927368883 0.07006141777046458 9.95404181968163e-05 4.5129888420269244e-06 9.803433723009123e-05 -2.3953403355610854e-05
 9.95404181968163e-05 4.5129888420269244e-06 9.95404181968163e-05 4.5129888420269244e-06 0.03747674121546265 0.05829510224847655 0.41368924894886094 -0.8983004626317611
 0.000188130947952968 -0.00014128468418504544 9.803433723009123e-05 -2.3953403355610854e-05 0.41368924894886094 -0.8983004626317611 0.03747674121546265 0.05829510224847655
2489836734.693877 0.0389329711484807 0.07010502134603633 0.5984864331726711 -0.7890985145243509 0.00010005451732181868 4.4349244131195265e-06 0.00018821547409993651 -0.00014422347479841116
 0.5984864331726711 -0.7890985145243509 0.0389329711484807 0.07010502134603633 0.00010005451732181868 4.4349244131195265e-06 9.84917482301032e-05 -2.4215438971062873e-05
 0.00010005451732181868 4.4349244131195265e-06 0.00010005451732181868 4.4349244131195265e-06 0.037478279156431316 0.05830711646472468 0.411804875146636 -0.8993047282456065
 0.00018785509208843053 -0.00014362920926483838 9.84917482301032e-05 -2.4215438971062873e-05 0.411804875146636 -0.8993047282456065 0.037478279156431316 0.05830711646472468
2494918367.3469386 0.03899365515175247 0.07014909212403542 0.5971519383267109 -0.7902431145090134 0.00010057533894406066 4.355199109102953e-06 0.00018791162276913118 -0.00014659772379056355
 0.5971519383267109 -0.7902431145090134 0.03899365515175247 0.07014909212403542 0.00010057533894406066 4.355199109102953e-06 9.895570766727183e-05 -2.4474644668466233e-05
 0.00010057533894406066 4.355199109102953e-06 0.00010057533894406066 4.355199109102953e-06 0.037479133990042476 0.05831996831813467 0.4099206631697303 -0.9003123857355578
 0.0001875488827976406 -0.00014599155589920256 9.895570766727183e-05 -2.4474644668466233e-05 0.4099206631697303 -0.9003123857355578 0.037479133990042476 0.05831996831813467
2500000000.0 0.03905394108122178 0.07019365295513276 0.5958173847040057 -0.7913907826884842 0.00010110314704495606 4.273540466860074e-06 0.00018757667697453538 -0.00014898962187659984
 0.5958173847040057 -0.7913907826884842 0.03905394108122178 0.07019365295513276 0.00010110314704495606 4.273540466860074e-06 9.942645275721363e-05 -2.473108152723021e-05
 0.00010110314704495606 4.273540466860074e-06 0.00010110314704495606 4.273540466860074e-06 0.03747933253461614 0.05833368099202607 0.4080364426949324 -0.9013236715169359
 0.000187211740195829 -0.00014837150481078454 9.942645275721363e-05 -2.473108152723021e-05 0.4080364426949324 -0.9013236715169359 0.03747933253461614 0.05833368099202607
