! Created with skrf 2.1.0 (http://scikit-rf.org).
# Hz S RI R 50.0 
!freq ReS11 ImS11 ReS21 ImS21 ReS12 ImS12 ReS22 ImS22
10000000.0 -0.010416756091520594 0.00047460912547766534 0.9818710255041744 -0.0030611974422905907 0.9818710255041742 -0.0030611974422905894 -0.010416756091520594 0.00047460912547766544
14900000.0 -0.010404691229163763 0.000706722917654839 0.9818852803718507 -0.004561970350220562 0.9818852803718511 -0.004561970350220564 -0.010404691229163763 0.0007067229176548395
19800000.0 -0.010387911522049757 0.0009383129042135688 0.9819050649029551 -0.006063670665174754 0.9819050649029549 -0.006063670665174753 -0.010387911522049757 0.0009383129042135693
24700000.0 -0.010366437370595975 0.001169208694364869 0.981930376713894 -0.007566597086257204 0.9819303767138944 -0.007566597086257206 -0.010366437370595975 0.001169208694364869
29600000.0 -0.01034030807093827 0.0013992422022843258 0.9819611075423269 -0.009071053785889072 0.9819611075423271 -0.009071053785889075 -0.01034030807093827 0.0013992422022843247
34500000.0 -0.01030956589204386 0.0016282469282054223 0.9819972210264328 -0.010577328355259628 0.9819972210264325 -0.010577328355259626 -0.01030956589204386 0.0016282469282054223
39400000.0 -0.01027426003420191 0.0018560596459584878 0.982038597576948 -0.012085714665024751 0.982038597576948 -0.012085714665024751 -0.01027426003420191 0.0018560596459584885
44300000.0 -0.010234451114013384 0.002082519237947402 0.982085144868021 -0.013596498218765825 0.982085144868021 -0.013596498218765825 -0.010234451114013384 0.0020825192379474024
49200000.0 -0.010190199528835353 0.0023074674292907814 0.982136753609154 -0.015109955756003756 0.9821367536091539 -0.015109955756003754 -0.010190199528835353 0.0023074674292907823
54100000.0 -0.010141577827086176 0.0025307550719563636 0.9821932751546038 -0.016626361250827906 0.9821932751546038 -0.016626361250827906 -0.010141577827086176 0.002530755071956364
59000000.0 -0.010088667295212407 0.002752227332678294 0.9822545878195872 -0.018145980621689536 0.9822545878195875 -0.018145980621689543 -0.010088667295212407 0.0027522273326782963
63900000.0 -0.010031545855868509 0.0029717407591348314 0.9823205306099179 -0.019669071116538744 0.9823205306099176 -0.019669071116538733 -0.010031545855868509 0.0029717407591348306
68800000.0 -0.009970306179640195 0.0031891568379982306 0.9823909471994982 -0.02119588544906498 0.9823909471994982 -0.02119588544906498 -0.009970306179640195 0.003189156837998232
73700000.0 -0.00990504558916811 0.003404336983926481 0.9824656404707579 -0.022726658197457027 0.9824656404707578 -0.02272665819745702 -0.00990504558916811 0.003404336983926479
78600000.0 -0.009835859864046826 0.003617156111003737 0.9825444641778937 -0.024261633537379042 0.9825444641778939 -0.024261633537379052 -0.009835859864046826 0.003617156111003738
83500000.0 -0.009762858399352824 0.003827482107828253 0.9826272075526024 -0.02580102911233534 0.9826272075526022 -0.025801029112335335 -0.009762858399352824 0.003827482107828254
88400000.0 -0.009686149009790583 0.004035204220505128 0.9827136643906417 -0.027345054370361305 0.9827136643906417 -0.027345054370361305 -0.009686149009790583 0.004035204220505127
93300000.0 -0.009605847068417698 0.004240200796789696 0.9828036113648406 -0.028893924946738786 0.9828036113648406 -0.028893924946738786 -0.009605847068417698 0.004240200796789697
98200000.0 -0.009522068960315095 0.004442371477233093 0.9828968697471876 -0.030447810386056647 0.9828968697471878 -0.030447810386056654 -0.009522068960315095 0.004442371477233093
103100000.0 -0.009434936814922606 0.004641611454122178 0.9829932020658796 -0.03200691337367604 0.9829932020658796 -0.03200691337367604 -0.009434936814922606 0.00464161145412218
108000000.0 -0.009344574375573997 0.0048378264839194236 0.9830923708177404 -0.03357139664551036 0.9830923708177404 -0.03357139664551036 -0.009344574375573997 0.004837826483919425
112900000.0 -0.0092511093629073 0.005030926380905678 0.9831941432343745 -0.035141427096868696 0.9831941432343745 -0.035141427096868696 -0.0092511093629073 0.00503092638090568
117800000.0 -0.009154671604618294 0.005220830309116881 0.9832982885195329 -0.03671715372980657 0.9832982885195326 -0.03671715372980656 -0.009154671604618294 0.005220830309116877
122700000.0 -0.009055388952835117 0.005407463198988656 0.9834045556574769 -0.03829871124592774 0.9834045556574771 -0.038298711245927756 -0.009055388952835117 0.00540746319898866
127600000.0 -0.008953399739388992 0.005590752368668743 0.9835126692483647 -0.03988619886041862 0.9835126692483649 -0.03988619886041863 -0.008953399739388992 0.0055907523686687475
132500000.0 -0.0088488334128303 0.0057706356721864875 0.9836224341041607 -0.04147977592913427 0.9836224341041606 -0.04147977592913426 -0.0088488334128303 0.005770635672186486
137400000.0 -0.008741824422703536 0.005947056303191567 0.983733580342684 -0.043079529465878334 0.9837335803426842 -0.04307952946587834 -0.008741824422703536 0.005947056303191569
142300000.0 -0.00863251196404634 0.0061199616658443555 0.9838458162757959 -0.04468553419652311 0.9838458162757958 -0.04468553419652311 -0.00863251196404634 0.0061199616658443555
147200000.0 -0.008521028363755552 0.006289310562545048 0.9839589230938851 -0.04629788094116636 0.9839589230938851 -0.04629788094116636 -0.008521028363755552 0.006289310562545052
152100000.0 -0.008407510698084915 0.006455059537292202 0.9840726383657133 -0.047916651786550635 0.984072638365713 -0.047916651786550614 -0.008407510698084915 0.006455059537292206
157000000.0 -0.008292092359515373 0.006617177306984719 0.984186695465037 -0.0495418914454534 0.9841866954650368 -0.04954189144545339 -0.008292092359515375 0.006617177306984715
161900000.0 -0.008174909872673112 0.006775637535273776 0.9843008307820567 -0.05117365071414124 0.9843008307820564 -0.05117365071414124 -0.008174909872673112 0.006775637535273776
166800000.0 -0.008056092451116591 0.006930417258188686 0.9844148270710512 -0.05281197787066321 0.9844148270710514 -0.052811977870663225 -0.008056092451116591 0.006930417258188686
171700000.0 -0.007935776262158589 0.007081500622748256 0.9845283966344425 -0.05445689712205657 0.9845283966344425 -0.05445689712205657 -0.007935776262158589 0.007081500622748256
176600000.0 -0.007814089920855949 0.007228875673114111 0.984641292726123 -0.05610840920778268 0.9846412927261229 -0.05610840920778267 -0.007814089920855949 0.007228875673114109
181500000.0 -0.0076911594992976045 0.007372540046631548 0.984753292217716 -0.05776651628653876 0.9847532922177157 -0.05776651628653874 -0.0076911594992976045 0.00737254004663155
186400000.0 -0.007567115836350191 0.0075124906262583864 0.984864109951835 -0.05943124140501236 0.9848641099518347 -0.05943124140501234 -0.007567115836350191 0.007512490626258385
191300000.0 -0.007442082001265687 0.007648727444972472 0.9849735222497 -0.06110257872442559 0.9849735222497 -0.06110257872442559 -0.007442082001265687 0.007648727444972475
196200000.0 -0.0073161815166124106 0.007781263420857513 0.985081297003276 -0.06278048603019495 0.985081297003276 -0.06278048603019495 -0.007316181516612409 0.007781263420857515
201100000.0 -0.00718953012878888 0.007910111442410897 0.9851872030938773 -0.06446492811427022 0.9851872030938772 -0.06446492811427021 -0.007189530128788879 0.007910111442410899
206000000.0 -0.007062248561015013 0.008035285014381239 0.9852909681355092 -0.066155887498538 0.9852909681355091 -0.06615588749853799 -0.007062248561015013 0.008035285014381239
210900000.0 -0.006934448646974646 0.008156806334741657 0.9853924211736 -0.0678533053751948 0.9853924211736003 -0.06785330537519481 -0.006934448646974646 0.008156806334741655
215800000.0 -0.00680624473851343 0.008274700192306752 0.9854913075205954 -0.0695571516295308 0.9854913075205953 -0.0695571516295308 -0.00680624473851343 0.00827470019230675
220700000.0 -0.006677745059444235 0.008388989901364321 0.9855874244888218 -0.0712673445220411 0.9855874244888216 -0.07126734452204109 -0.006677745059444235 0.008388989901364326
225600000.0 -0.006549050725690103 0.00849971328073852 0.9856805486638877 -0.0729838150956383 0.9856805486638879 -0.07298381509563832 -0.006549050725690103 0.008499713280738511
230500000.0 -0.006420269104127239 0.008606896343556849 0.9857704829593518 -0.07470651631577548 0.985770482959352 -0.0747065163157755 -0.006420269104127239 0.008606896343556849
235400000.0 -0.00629149572726684 0.008710581087958715 0.9858570330537035 -0.07643533940181262 0.9858570330537035 -0.07643533940181262 -0.00629149572726684 0.00871058108795872
240300000.0 -0.006162828823653176 0.008810804832959247 0.9859399887713836 -0.07817020962949006 0.9859399887713839 -0.07817020962949008 -0.0061628288236531764 0.008810804832959243
245200000.0 -0.0060343602387404665 0.008907608001463244 0.9860191808325409 -0.07991104655591151 0.9860191808325408 -0.0799110465559115 -0.0060343602387404665 0.008907608001463244
250100000.0 -0.005906177903898175 0.009001034514796849 0.9860944051840548 -0.08165774178122231 0.9860944051840548 -0.08165774178122231 -0.005906177903898175 0.009001034514796849
255000000.0 -0.005778369958914934 0.009091132203810899 0.9861654836418592 -0.08341020792154172 0.9861654836418594 -0.08341020792154175 -0.005778369958914934 0.009091132203810904
259900000.0 -0.005651016201254195 0.009177946403240385 0.9862322706595527 -0.08516833026873419 0.9862322706595527 -0.08516833026873419 -0.005651016201254195 0.009177946403240392
264800000.0 -0.00552419631457148 0.009261524067770019 0.9862945981845147 -0.08693200727319708 0.9862945981845147 -0.08693200727319708 -0.005524196314571479 0.00926152406777002
269700000.0 -0.005397989668920092 0.009341920520241862 0.9863522893778932 -0.088701123662748 0.9863522893778932 -0.088701123662748 -0.005397989668920092 0.00934192052024186
274600000.0 -0.005272465249336641 0.00941918450381954 0.9864052054671292 -0.09047555687247616 0.9864052054671294 -0.09047555687247617 -0.005272465249336641 0.009419184503819537
279500000.0 -0.005147693577005569 0.009493367243281321 0.9864532125532457 -0.09225521048944858 0.9864532125532459 -0.09225521048944861 -0.005147693577005569 0.009493367243281326
284400000.0 -0.005023741229124638 0.009564526046863893 0.9864961519288167 -0.09403993376336371 0.9864961519288163 -0.0940399337633637 -0.005023741229124638 0.009564526046863888
289300000.0 -0.004900672591843376 0.009632714431000654 0.9865338845037224 -0.09582964297683337 0.9865338845037224 -0.09582964297683337 -0.0049006725918433755 0.009632714431000663
294200000.0 -0.0047785454857118695 0.009697983116059598 0.9865663132490925 -0.09762419706529421 0.9865663132490923 -0.09762419706529418 -0.00477854548571187 0.009697983116059593
299100000.0 -0.004657417295561113 0.00976039320492998 0.9865933017811062 -0.09942342828875027 0.9865933017811062 -0.09942342828875027 -0.004657417295561113 0.009760393204929982
304000000.0 -0.0045373432912887805 0.009819998258562473 0.9866147218475695 -0.1012272628659359 0.9866147218475692 -0.10122726286593588 -0.004537343291288782 0.009819998258562465
308900000.0 -0.004418374408581573 0.009876853328667324 0.9866304859178181 -0.10303556854468356 0.9866304859178181 -0.10303556854468356 -0.004418374408581573 0.00987685332866733
313800000.0 -0.0043005574788687615 0.009931015263030297 0.986640485820768 -0.10484817875334916 0.9866404858207678 -0.10484817875334915 -0.004300557478868761 0.009931015263030302
318700000.0 -0.004183939892910505 0.009982543039826498 0.9866446061449055 -0.10666498026250847 0.9866446061449053 -0.10666498026250847 -0.004183939892910505 0.0099825430398265
323600000.0 -0.004068561974799103 0.010031488662338842 0.9866427777064779 -0.10848582013753694 0.9866427777064778 -0.10848582013753692 -0.004068561974799103 0.010031488662338836
328500000.0 -0.003954467100170766 0.010077911347295 0.986634905521727 -0.11031060631825672 0.986634905521727 -0.11031060631825672 -0.003954467100170765 0.010077911347295005
333400000.0 -0.0038416910787234283 0.01012186412587702 0.986620931534491 -0.11213918640089998 0.9866209315344914 -0.11213918640090001 -0.0038416910787234283 0.01012186412587702
338300000.0 -0.003730269110333057 0.010163403591588984 0.9866007258182768 -0.11397142004582472 0.9866007258182768 -0.11397142004582472 -0.003730269110333057 0.010163403591588988
343200000.0 -0.0036202340277700167 0.010202584954241449 0.9865742684462987 -0.11580716549842453 0.9865742684462987 -0.11580716549842453 -0.0036202340277700167 0.01020258495424145
348100000.0 -0.0035116185317656517 0.010239464410004888 0.9865414770647372 -0.11764631200038607 0.9865414770647372 -0.11764631200038607 -0.003511618531765652 0.010239464410004877
353000000.0 -0.003404447737996965 0.010274090755096825 0.9865022936922914 -0.11948871568987551 0.9865022936922916 -0.11948871568987555 -0.003404447737996965 0.010274090755096825
357900000.0 -0.0032987498426040817 0.010306522041405995 0.9864566555969998 -0.12133423657418191 0.9864566555969996 -0.1213342365741819 -0.003298749842604082 0.010306522041405992
362800000.0 -0.0031945498435577203 0.01033680841346873 0.9864045141024039 -0.12318277670068782 0.9864045141024043 -0.12318277670068786 -0.0031945498435577203 0.01033680841346873
367700000.0 -0.003091867837363978 0.01036500214091815 0.9863458247315028 -0.1250341656459082 0.9863458247315027 -0.1250341656459082 -0.0030918678373639766 0.010365002140918159
372600000.0 -0.002990725484581581 0.010391152829490232 0.9862805666818882 -0.1268882927609797 0.9862805666818885 -0.12688829276097977 -0.002990725484581582 0.010391152829490229
377500000.0 -0.0028911410871764135 0.01041531042401643 0.9862086570354053 -0.12874503308199967 0.9862086570354056 -0.12874503308199972 -0.0028911410871764126 0.010415310424016435
382400000.0 -0.002793130798820922 0.010437528447323515 0.9861300926845427 -0.13060424389651634 0.9861300926845427 -0.13060424389651634 -0.0027931307988209235 0.010437528447323506
387300000.0 -0.0026967105399213253 0.01045785024544804 0.9860448562861427 -0.13246581351932163 0.9860448562861427 -0.13246581351932163 -0.0026967105399213257 0.010457850245448036
392200000.0 -0.002601894747026322 0.010476325429277494 0.9859528970297755 -0.13432962486963185 0.9859528970297755 -0.13432962486963185 -0.002601894747026321 0.010476325429277497
397100000.0 -0.0025086950545481603 0.010493002458693328 0.9858541957662794 -0.1361955431734506 0.9858541957662794 -0.1361955431734506 -0.0025086950545481616 0.010493002458693319
402000000.0 -0.002417119437080528 0.01050792245110072 0.9857487456919429 -0.13806342552489423 0.9857487456919428 -0.1380634255248942 -0.002417119437080528 0.01050792245110072
406900000.0 -0.0023271819825493255 0.010521132226523098 0.9856365197308067 -0.13993318891300066 0.9856365197308069 -0.13993318891300072 -0.0023271819825493242 0.010521132226523107
411800000.0 -0.0022388879203971953 0.010532673562481871 0.9855175115324579 -0.14180471310818463 0.9855175115324576 -0.1418047131081846 -0.002238887920397195 0.010532673562481876
416700000.0 -0.0021522450302570544 0.010542593516306044 0.9853917164944431 -0.14367785068005384 0.9853917164944431 -0.14367785068005384 -0.0021522450302570552 0.010542593516306039
421600000.0 -0.002067257509032085 0.010550928761041457 0.9852591279412953 -0.14555250314102697 0.9852591279412953 -0.14555250314102697 -0.0020672575090320863 0.010550928761041448
426500000.0 -0.001983930225090669 0.010557720884452558 0.9851197345686338 -0.14742857377555918 0.9851197345686336 -0.14742857377555912 -0.0019839302250906684 0.010557720884452561
431400000.0 -0.0019022705375043238 0.010563010584808703 0.9849735556850641 -0.14930594470520162 0.9849735556850638 -0.1493059447052016 -0.0019022705375043246 0.010563010584808697
436300000.0 -0.0018222769105682242 0.010566835716428977 0.9848205465152797 -0.15118448724752392 0.9848205465152794 -0.15118448724752387 -0.0018222769105682246 0.010566835716428972
441200000.0 -0.0017439509708366385 0.010569230676305328 0.9846607850563392 -0.15306411616658674 0.984660785056339 -0.15306411616658672 -0.0017439509708366372 0.010569230676305337
446100000.0 -0.0016672975221962867 0.010570238083967207 0.9844942160647604 -0.15494470538574134 0.9844942160647604 -0.15494470538574134 -0.0016672975221962867 0.010570238083967207
451000000.0 -0.0015923116472087646 0.010569887572700772 0.9843208778068608 -0.1568261655546774 0.9843208778068608 -0.1568261655546774 -0.0015923116472087676 0.010569887572700755
455900000.0 -0.0015189950447369652 0.010568216023060115 0.9841407919800291 -0.15870839002605838 0.984140791980029 -0.15870839002605833 -0.001518995044736966 0.010568216023060111
460800000.0 -0.0014473489971359888 0.010565253873964299 0.9839539697447999 -0.16059130200412866 0.9839539697447997 -0.16059130200412863 -0.00144734899713599 0.01056525387396429
465700000.0 -0.0013773666433423823 0.010561036801469626 0.9837603980740484 -0.16247476236807096 0.9837603980740484 -0.16247476236807096 -0.0013773666433423845 0.010561036801469612
470600000.0 -0.0013090489827718005 0.010555591896290677 0.9835601364870171 -0.1643587055177492 0.983560136487017 -0.1643587055177492 -0.001309048982771802 0.010555591896290668
475500000.0 -0.001242389684320001 0.010548954456634051 0.983353156615175 -0.16624302307180033 0.983353156615175 -0.16624302307180033 -0.0012423896843200026 0.010548954456634042
480400000.0 -0.0011773884703326623 0.010541150279155594 0.9831395253277975 -0.1681276372396872 0.9831395253277975 -0.1681276372396872 -0.0011773884703326653 0.010541150279155576
485300000.0 -0.0011140410727665795 0.010532207159546699 0.9829192626803626 -0.17001244877233665 0.9829192626803628 -0.1700124487723367 -0.001114041072766578 0.010532207159546707
490200000.0 -0.0010523388429307136 0.010522155496565487 0.9826923669984836 -0.17189737176780387 0.982692366998484 -0.17189737176780392 -0.0010523388429307164 0.01052215549656547
495100000.0 -0.000992283170914447 0.01051101701412065 0.982458890563966 -0.1737823276345957 0.9824588905639662 -0.17378232763459572 -0.0009922831709144456 0.010511017014120659
500000000.0 -0.000933862127925055 0.010498822941724167 0.9822188385653935 -0.17566721796829737 0.9822188385653935 -0.17566721796829737 -0.0009338621279250581 0.01049882294172415
