! Created with skrf 2.1.0 (http://scikit-rf.org).
# MHz S RI R 50.0 
!freq ReS11 ImS11 ReS12 ImS12 ReS13 ImS13
! ReS14 ImS14
! ReS21 ImS21 ReS22 ImS22 ReS23 ImS23
! ReS24 ImS24
! ReS31 ImS31 ReS32 ImS32 ReS33 ImS33
! ReS34 ImS34
! ReS41 ImS41 ReS42 ImS42 ReS43 ImS43
! ReS44 ImS44
!
10.0 -0.009290145922363829 0.0004201227922330261 0.9838432581927521 -0.002729626563404028 1.544354414794939e-05 -1.720543690699048e-07 1.544354414794939e-05 -1.720543690699048e-07
 0.9838432581927518 -0.0027296265634040267 -0.009290145922363829 0.0004201227922330258 1.544354414794939e-05 -1.720543690699048e-07 1.544354414794939e-05 -1.720543690699048e-07
 1.544354414794939e-05 -1.720543690699048e-07 1.544354414794939e-05 -1.720543690699048e-07 -0.010416756091520594 0.00047460912547766534 0.9818710255041742 -0.0030611974422905894
 1.544354414794939e-05 -1.720543690699048e-07 1.544354414794939e-05 -1.720543690699048e-07 0.9818710255041744 -0.0030611974422905907 -0.010416756091520594 0.00047460912547766544
11.0 -0.00928798218369159 0.00046205484773702147 0.9838459745726275 -0.003002731047429324 1.698767717809151e-05 -2.0818488225137739e-07 1.698767717809151e-05 -2.0818488225137739e-07
 0.9838459745726271 -0.0030027310474293233 -0.00928798218369159 0.0004620548477370213 1.698767717809151e-05 -2.0818488225137739e-07 1.698767717809151e-05 -2.0818488225137739e-07
 1.698767717809151e-05 -2.0818488225137739e-07 1.698767717809151e-05 -2.0818488225137739e-07 -0.010414293874713078 0.0005219792871464763 0.9818739346608429 -0.0033674776275824207
 1.698767717809151e-05 -2.0818488225137739e-07 1.698767717809151e-05 -2.0818488225137739e-07 0.981873934660843 -0.0033674776275824216 -0.010414293874713078 0.0005219792871464765
12.0 -0.009285818445019352 0.0005039869032410169 0.9838486909525027 -0.0032758355314546203 1.8531746956679394e-05 -2.4775603652809133e-07 1.8531746956679394e-05 -2.4775603652809133e-07
 0.9838486909525025 -0.0032758355314546194 -0.009285818445019352 0.0005039869032410168 1.8531746956679394e-05 -2.4775603652809133e-07 1.8531746956679394e-05 -2.4775603652809133e-07
 1.8531746956679394e-05 -2.4775603652809133e-07 1.8531746956679394e-05 -2.4775603652809133e-07 -0.010411831657905561 0.0005693494488152873 0.9818768438175117 -0.0036737578128742524
 1.8531746956679394e-05 -2.4775603652809133e-07 1.8531746956679394e-05 -2.4775603652809133e-07 0.9818768438175117 -0.0036737578128742524 -0.010411831657905561 0.0005693494488152875
13.0 -0.009283654706347113 0.0005459189587450124 0.9838514073323781 -0.0035489400154799164 2.007574773411888e-05 -2.907677336763834e-07 2.007574773411888e-05 -2.907677336763834e-07
 0.983851407332378 -0.003548940015479916 -0.009283654706347113 0.0005459189587450124 2.007574773411888e-05 -2.907677336763834e-07 2.007574773411888e-05 -2.907677336763834e-07
 2.007574773411888e-05 -2.907677336763834e-07 2.007574773411888e-05 -2.907677336763834e-07 -0.010409369441098045 0.0006167196104840981 0.9818797529741804 -0.003980037998166084
 2.007574773411888e-05 -2.907677336763834e-07 2.007574773411888e-05 -2.907677336763834e-07 0.9818797529741803 -0.003980037998166083 -0.010409369441098045 0.0006167196104840986
14.0 -0.009281490967674876 0.0005878510142490077 0.9838541237122533 -0.0038220444995052125 2.161967376095853e-05 -3.3721986693219707e-07 2.161967376095853e-05 -3.3721986693219707e-07
 0.9838541237122533 -0.0038220444995052125 -0.009281490967674876 0.0005878510142490079 2.161967376095853e-05 -3.3721986693219707e-07 2.161967376095853e-05 -3.3721986693219707e-07
 2.161967376095853e-05 -3.3721986693219707e-07 2.161967376095853e-05 -3.3721986693219707e-07 -0.010406907224290529 0.0006640897721529091 0.9818826621308492 -0.004286318183457915
 2.161967376095853e-05 -3.3721986693219707e-07 2.161967376095853e-05 -3.3721986693219707e-07 0.981882662130849 -0.0042863181834579146 -0.010406907224290529 0.0006640897721529096
15.0 -0.009279242678360397 0.0006297736199733755 0.9838569455429464 -0.004095165715036536 2.316351928790155e-05 -3.871123209912818e-07 2.316351928790155e-05 -3.871123209912818e-07
 0.9838569455429464 -0.004095165715036536 -0.009279242678360397 0.0006297736199733757 2.316351928790155e-05 -3.871123209912818e-07 2.316351928790155e-05 -3.871123209912818e-07
 2.316351928790155e-05 -3.871123209912818e-07 2.316351928790155e-05 -3.871123209912818e-07 -0.010404348786161437 0.0007114492439111396 0.981885684137792 -0.004592617295423711
 2.316351928790155e-05 -3.871123209912818e-07 2.316351928790155e-05 -3.871123209912818e-07 0.9818856841377916 -0.004592617295423709 -0.010404348786161437 0.0007114492439111402
16.0 -0.009276233433265757 0.0006716111776810937 0.9838607164309996 -0.004368437514122101 2.4707278565817622e-05 -4.404449720094071e-07 2.4707278565817622e-05 -4.404449720094071e-07
 0.9838607164309996 -0.004368437514122101 -0.009276233433265757 0.0006716111776810938 2.4707278565817622e-05 -4.404449720094071e-07 2.4707278565817622e-05 -4.404449720094071e-07
 2.4707278565817622e-05 -4.404449720094071e-07 2.4707278565817622e-05 -4.404449720094071e-07 -0.01040092435613817 0.0007587125064741456 0.9818897217972009 -0.004899086747455178
 2.4707278565817622e-05 -4.404449720094071e-07 2.4707278565817622e-05 -4.404449720094071e-07 0.9818897217972007 -0.004899086747455176 -0.01040092435613817 0.0007587125064741462
17.0 -0.009273224188171116 0.000713448735388812 0.9838644873190527 -0.004641709313207666 2.6250945845754876e-05 -4.972176876025936e-07 2.6250945845754876e-05 -4.972176876025936e-07
 0.9838644873190528 -0.004641709313207667 -0.009273224188171116 0.0007134487353888119 2.6250945845754876e-05 -4.972176876025936e-07 2.6250945845754876e-05 -4.972176876025936e-07
 2.6250945845754876e-05 -4.972176876025936e-07 2.6250945845754876e-05 -4.972176876025936e-07 -0.010397499926114903 0.0008059757690371517 0.9818937594566098 -0.005205556199486645
 2.6250945845754876e-05 -4.972176876025936e-07 2.6250945845754876e-05 -4.972176876025936e-07 0.9818937594566097 -0.005205556199486644 -0.010397499926114903 0.0008059757690371523
18.0 -0.009270214943076475 0.0007552862930965302 0.9838682582071059 -0.004914981112293232 2.7794515378951716e-05 -5.574303268473594e-07 2.7794515378951716e-05 -5.574303268473594e-07
 0.983868258207106 -0.0049149811122932326 -0.009270214943076475 0.0007552862930965301 2.7794515378951716e-05 -5.574303268473594e-07 2.7794515378951716e-05 -5.574303268473594e-07
 2.7794515378951716e-05 -5.574303268473594e-07 2.7794515378951716e-05 -5.574303268473594e-07 -0.010394075496091637 0.0008532390316001578 0.9818977971160188 -0.005512025651518112
 2.7794515378951716e-05 -5.574303268473594e-07 2.7794515378951716e-05 -5.574303268473594e-07 0.9818977971160189 -0.005512025651518112 -0.010394075496091637 0.0008532390316001584
19.0 -0.009267205697981834 0.0007971238508042485 0.983872029095159 -0.005188252911378797 2.9337981416848726e-05 -6.210827402809816e-07 2.9337981416848726e-05 -6.210827402809816e-07
 0.9838720290951591 -0.005188252911378798 -0.009267205697981834 0.0007971238508042483 2.9337981416848726e-05 -6.210827402809816e-07 2.9337981416848726e-05 -6.210827402809816e-07
 2.9337981416848726e-05 -6.210827402809816e-07 2.9337981416848726e-05 -6.210827402809816e-07 -0.01039065106606837 0.000900502294163164 0.9819018347754278 -0.005818495103549579
 2.9337981416848726e-05 -6.210827402809816e-07 2.9337981416848726e-05 -6.210827402809816e-07 0.9819018347754279 -0.00581849510354958 -0.01039065106606837 0.0009005022941631644
20.0 -0.009264028085953193 0.0008389363615369684 0.9838760108175018 -0.005461568949291146 3.08813382111006e-05 -6.881747699017763e-07 3.08813382111006e-05 -6.881747699017763e-07
 0.9838760108175019 -0.005461568949291147 -0.009264028085953193 0.0008389363615369681 3.08813382111006e-05 -6.881747699017763e-07 3.08813382111006e-05 -6.881747699017763e-07
 3.08813382111006e-05 -6.881747699017763e-07 3.08813382111006e-05 -6.881747699017763e-07 -0.010387035026072052 0.000947737222178928 0.9819060980380954 -0.006125014600729139
 3.08813382111006e-05 -6.881747699017763e-07 3.08813382111006e-05 -6.881747699017763e-07 0.9819060980380955 -0.00612501460072914 -0.010387035026072052 0.0009477372221789285
21.0 -0.009260177006188548 0.000880648684369695 0.9838808358770024 -0.005735061942510626 3.2424580013587994e-05 -7.587062491693904e-07 3.2424580013587994e-05 -7.587062491693904e-07
 0.9838808358770025 -0.005735061942510627 -0.009260177006188548 0.0008806486843696946 3.2424580013587994e-05 -7.587062491693904e-07 3.2424580013587994e-05 -7.587062491693904e-07
 3.2424580013587994e-05 -7.587062491693904e-07 3.2424580013587994e-05 -7.587062491693904e-07 -0.010382652546183525 0.0009948588120057239 0.9819112637137972 -0.006431734278501068
 3.2424580013587994e-05 -7.587062491693904e-07 3.2424580013587994e-05 -7.587062491693904e-07 0.9819112637137973 -0.006431734278501068 -0.010382652546183525 0.0009948588120057243
22.0 -0.009256325926423902 0.0009223610072024215 0.983885660936503 -0.0060085549357301055 3.39677010764294e-05 -8.326770030051141e-07 3.39677010764294e-05 -8.326770030051141e-07
 0.9838856609365031 -0.006008554935730108 -0.009256325926423902 0.0009223610072024213 3.39677010764294e-05 -8.326770030051141e-07 3.39677010764294e-05 -8.326770030051141e-07
 3.39677010764294e-05 -8.326770030051141e-07 3.39677010764294e-05 -8.326770030051141e-07 -0.010378270066294997 0.0010419804018325198 0.9819164293894992 -0.006738453956272998
 3.39677010764294e-05 -8.326770030051141e-07 3.39677010764294e-05 -8.326770030051141e-07 0.9819164293894992 -0.006738453956272997 -0.010378270066294997 0.0010419804018325202
23.0 -0.009252474846659255 0.000964073330035148 0.9838904859960035 -0.0062820479289495855 3.551069565199311e-05 -9.100868477922049e-07 3.551069565199311e-05 -9.100868477922049e-07
 0.9838904859960038 -0.006282047928949588 -0.009252474846659255 0.0009640733300351478 3.551069565199311e-05 -9.100868477922049e-07 3.551069565199311e-05 -9.100868477922049e-07
 3.551069565199311e-05 -9.100868477922049e-07 3.551069565199311e-05 -9.100868477922049e-07 -0.01037388758640647 0.0010891019916593157 0.981921595065201 -0.007045173634044926
 3.551069565199311e-05 -9.100868477922049e-07 3.551069565199311e-05 -9.100868477922049e-07 0.9819215950652009 -0.007045173634044925 -0.01037388758640647 0.001089101991659316
24.0 -0.00924862376689461 0.0010057856528678747 0.9838953110555041 -0.006555540922169065 3.7053557992909025e-05 -9.909355913762308e-07 3.7053557992909025e-05 -9.909355913762308e-07
 0.9838953110555044 -0.006555540922169069 -0.00924862376689461 0.0010057856528678745 3.7053557992909025e-05 -9.909355913762308e-07 3.7053557992909025e-05 -9.909355913762308e-07
 3.7053557992909025e-05 -9.909355913762308e-07 3.7053557992909025e-05 -9.909355913762308e-07 -0.010369505106517943 0.0011362235814861117 0.981926760740903 -0.007351893311816855
 3.7053557992909025e-05 -9.909355913762308e-07 3.7053557992909025e-05 -9.909355913762308e-07 0.9819267607409028 -0.0073518933118168536 -0.010369505106517943 0.0011362235814861119
25.0 -0.009244522273200346 0.0010474513093108072 0.9839004464919069 -0.0068291167409789836 3.859628235208059e-05 -1.0752230330654268e-06 3.859628235208059e-05 -1.0752230330654268e-06
 0.9839004464919072 -0.006829116740978986 -0.009244522273200346 0.001047451309310807 3.859628235208059e-05 -1.0752230330654268e-06 3.859628235208059e-05 -1.0752230330654268e-06
 3.859628235208059e-05 -1.0752230330654268e-06 3.859628235208059e-05 -1.0752230330654268e-06 -0.010364837617555708 0.001183292378523203 0.9819322581931862 -0.007658706680112218
 3.859628235208059e-05 -1.0752230330654268e-06 3.859628235208059e-05 -1.0752230330654268e-06 0.9819322581931859 -0.007658706680112216 -0.010364837617555708 0.0011832923785232029
26.0 -0.009239836480336978 0.001089008077510887 0.9839063061410812 -0.0071028858194999225 4.0138862982696664e-05 -1.1629489636310698e-06 4.0138862982696664e-05 -1.1629489636310698e-06
 0.9839063061410814 -0.007102885819499924 -0.009239836480336978 0.0010890080775108868 4.0138862982696664e-05 -1.1629489636310698e-06 4.0138862982696664e-05 -1.1629489636310698e-06
 4.0138862982696664e-05 -1.1629489636310698e-06 4.0138862982696664e-05 -1.1629489636310698e-06 -0.010359505107421481 0.0012302379923843166 0.9819385297908255 -0.007965738659628926
 4.0138862982696664e-05 -1.1629489636310698e-06 4.0138862982696664e-05 -1.1629489636310698e-06 0.9819385297908252 -0.007965738659628924 -0.010359505107421481 0.0012302379923843163
27.0 -0.00923515068747361 0.001130564845710967 0.9839121657902556 -0.007376654898020861 4.168129413824341e-05 -1.2541131653078666e-06 4.168129413824341e-05 -1.2541131653078666e-06
 0.9839121657902558 -0.007376654898020862 -0.00923515068747361 0.0011305648457109669 4.168129413824341e-05 -1.2541131653078666e-06 4.168129413824341e-05 -1.2541131653078666e-06
 4.168129413824341e-05 -1.2541131653078666e-06 4.168129413824341e-05 -1.2541131653078666e-06 -0.010354172597287256 0.0012771836062454303 0.9819448013884648 -0.008272770639145634
 4.168129413824341e-05 -1.2541131653078666e-06 4.168129413824341e-05 -1.2541131653078666e-06 0.9819448013884646 -0.008272770639145631 -0.010354172597287256 0.0012771836062454298
28.0 -0.009230464894610243 0.001172121613911047 0.98391802543943 -0.0076504239765418 4.3223570072516214e-05 -1.3487154117943606e-06 4.3223570072516214e-05 -1.3487154117943606e-06
 0.9839180254394301 -0.0076504239765418005 -0.009230464894610243 0.001172121613911047 4.3223570072516214e-05 -1.3487154117943606e-06 4.3223570072516214e-05 -1.3487154117943606e-06
 4.3223570072516214e-05 -1.3487154117943606e-06 4.3223570072516214e-05 -1.3487154117943606e-06 -0.010348840087153031 0.001324129220106544 0.9819510729861042 -0.008579802618662343
 4.3223570072516214e-05 -1.3487154117943606e-06 4.3223570072516214e-05 -1.3487154117943606e-06 0.981951072986104 -0.00857980261866234 -0.010348840087153031 0.001324129220106543
29.0 -0.009225779101746875 0.0012136783821111267 0.9839238850886043 -0.007924193055062739 4.4765685039631516e-05 -1.4467554682533532e-06 4.4765685039631516e-05 -1.4467554682533532e-06
 0.9839238850886044 -0.007924193055062739 -0.009225779101746875 0.0012136783821111267 4.4765685039631516e-05 -1.4467554682533532e-06 4.4765685039631516e-05 -1.4467554682533532e-06
 4.4765685039631516e-05 -1.4467554682533532e-06 4.4765685039631516e-05 -1.4467554682533532e-06 -0.010343507577018806 0.0013710748339676576 0.9819573445837435 -0.008886834598179051
 4.4765685039631516e-05 -1.4467554682533532e-06 4.4765685039631516e-05 -1.4467554682533532e-06 0.9819573445837433 -0.008886834598179048 -0.010343507577018806 0.0013710748339676566
30.0 -0.009220762477860474 0.0012551609160694898 0.9839301559856622 -0.00819809331439637 4.6307633294038754e-05 -1.548233091312339e-06 4.6307633294038754e-05 -1.548233091312339e-06
 0.9839301559856624 -0.00819809331439637 -0.009220762477860474 0.0012551609160694898 4.6307633294038754e-05 -1.548233091312339e-06 4.6307633294038754e-05 -1.548233091312339e-06
 4.6307633294038754e-05 -1.548233091312339e-06 4.6307633294038754e-05 -1.548233091312339e-06 -0.010337798505314237 0.0014179364656248235 0.981964055581846 -0.009194014975225446
 4.6307633294038754e-05 -1.548233091312339e-06 4.6307633294038754e-05 -1.548233091312339e-06 0.9819640555818457 -0.009194014975225444 -0.010337798505314237 0.0014179364656248224
31.0 -0.009215249607439522 0.0012965320986652773 0.9839370437545457 -0.00847219034494904 4.7849409090532204e-05 -1.6531480290639632e-06 4.7849409090532204e-05 -1.6531480290639632e-06
 0.9839370437545457 -0.008472190344949043 -0.009215249607439522 0.001296532098665277 4.7849409090532204e-05 -1.6531480290639632e-06 4.7849409090532204e-05 -1.6531480290639632e-06
 4.7849409090532204e-05 -1.6531480290639632e-06 4.7849409090532204e-05 -1.6531480290639632e-06 -0.010331524591254153 0.0014646721239760677 0.981971425680643 -0.009501417948566375
 4.7849409090532204e-05 -1.6531480290639632e-06 4.7849409090532204e-05 -1.6531480290639632e-06 0.9819714256806429 -0.009501417948566373 -0.010331524591254153 0.0014646721239760668
32.0 -0.00920973673701857 0.0013379032812610649 0.9839439315234291 -0.008746287375501713 4.939100668426287e-05 -1.761500021066483e-06 4.939100668426287e-05 -1.761500021066483e-06
 0.9839439315234292 -0.008746287375501713 -0.00920973673701857 0.0013379032812610644 4.939100668426287e-05 -1.761500021066483e-06 4.939100668426287e-05 -1.761500021066483e-06
 4.939100668426287e-05 -1.761500021066483e-06 4.939100668426287e-05 -1.761500021066483e-06 -0.01032525067719407 0.0015114077823273119 0.9819787957794399 -0.009808820921907303
 4.939100668426287e-05 -1.761500021066483e-06 4.939100668426287e-05 -1.761500021066483e-06 0.98197879577944 -0.009808820921907303 -0.01032525067719407 0.0015114077823273112
33.0 -0.00920422386659762 0.0013792744638568522 0.9839508192923124 -0.009020384406054384 5.0932420330750444e-05 -1.8732887983442619e-06 5.0932420330750444e-05 -1.8732887983442619e-06
 0.9839508192923127 -0.009020384406054386 -0.00920422386659762 0.001379274463856852 5.0932420330750444e-05 -1.8732887983442619e-06 5.0932420330750444e-05 -1.8732887983442619e-06
 5.0932420330750444e-05 -1.8732887983442619e-06 5.0932420330750444e-05 -1.8732887983442619e-06 -0.010318976763133985 0.001558143440678556 0.981986165878237 -0.010116223895248232
 5.0932420330750444e-05 -1.8732887983442619e-06 5.0932420330750444e-05 -1.8732887983442619e-06 0.9819861658782372 -0.010116223895248234 -0.010318976763133985 0.0015581434406785556
34.0 -0.009198710996176668 0.0014206456464526398 0.9839577070611958 -0.009294481436607055 5.247364428589505e-05 -1.988514083388263e-06 5.247364428589505e-05 -1.988514083388263e-06
 0.9839577070611961 -0.009294481436607056 -0.009198710996176668 0.0014206456464526394 5.247364428589505e-05 -1.988514083388263e-06 5.247364428589505e-05 -1.988514083388263e-06
 5.247364428589505e-05 -1.988514083388263e-06 5.247364428589505e-05 -1.988514083388263e-06 -0.010312702849073901 0.0016048790990298002 0.981993535977034 -0.01042362686858916
 5.247364428589505e-05 -1.988514083388263e-06 5.247364428589505e-05 -1.988514083388263e-06 0.9819935359770343 -0.010423626868589162 -0.010312702849073901 0.0016048790990298
35.0 -0.009192789038572197 0.0014619093178407357 0.9839650980950475 -0.009568768957751373 5.4014672805989274e-05 -2.1071755901565703e-06 5.4014672805989274e-05 -2.1071755901565703e-06
 0.9839650980950478 -0.009568768957751375 -0.009192789038572197 0.0014619093178407355 5.4014672805989274e-05 -2.1071755901565703e-06 5.4014672805989274e-05 -2.1071755901565703e-06
 5.4014672805989274e-05 -2.1071755901565703e-06 5.4014672805989274e-05 -2.1071755901565703e-06 -0.01030596325348856 0.0016514931238945107 0.9820014431234239 -0.010731245325643823
 5.4014672805989274e-05 -2.1071755901565703e-06 5.4014672805989274e-05 -2.1071755901565703e-06 0.9820014431234242 -0.010731245325643825 -0.01030596325348856 0.0016514931238945107
36.0 -0.009186457993784208 0.00150306547802114 0.9839729923938676 -0.009843246969487338 5.555550014772994e-05 -2.2292730240749162e-06 5.555550014772994e-05 -2.2292730240749162e-06
 0.9839729923938679 -0.009843246969487341 -0.009186457993784208 0.0015030654780211399 5.555550014772994e-05 -2.2292730240749162e-06 5.555550014772994e-05 -2.2292730240749162e-06
 5.555550014772994e-05 -2.2292730240749162e-06 5.555550014772994e-05 -2.2292730240749162e-06 -0.010298757976377958 0.0016979855152726873 0.9820098873174067 -0.011039079266412215
 5.555550014772994e-05 -2.2292730240749162e-06 5.555550014772994e-05 -2.2292730240749162e-06 0.9820098873174069 -0.011039079266412217 -0.010298757976377958 0.0016979855152726875
37.0 -0.009180126948996219 0.0015442216382015445 0.9839808866926877 -0.010117724981223302 5.709612056823004e-05 -2.3548060820372353e-06 5.709612056823004e-05 -2.3548060820372353e-06
 0.983980886692688 -0.010117724981223306 -0.009180126948996219 0.0015442216382015443 5.709612056823004e-05 -2.3548060820372353e-06 5.709612056823004e-05 -2.3548060820372353e-06
 5.709612056823004e-05 -2.3548060820372353e-06 5.709612056823004e-05 -2.3548060820372353e-06 -0.010291552699267355 0.001744477906650864 0.9820183315113894 -0.011346913207180608
 5.709612056823004e-05 -2.3548060820372353e-06 5.709612056823004e-05 -2.3548060820372353e-06 0.9820183315113895 -0.01134691320718061 -0.010291552699267355 0.0017444779066508643
38.0 -0.00917379590420823 0.0015853777983819489 0.9839887809915078 -0.010392202992959267 5.863652832503062e-05 -2.4837744524062267e-06 5.863652832503062e-05 -2.4837744524062267e-06
 0.9839887809915081 -0.010392202992959272 -0.00917379590420823 0.0015853777983819489 5.863652832503062e-05 -2.4837744524062267e-06 5.863652832503062e-05 -2.4837744524062267e-06
 5.863652832503062e-05 -2.4837744524062267e-06 5.863652832503062e-05 -2.4837744524062267e-06 -0.010284347422156753 0.0017909702980290405 0.9820267757053721 -0.011654747147949
 5.863652832503062e-05 -2.4837744524062267e-06 5.863652832503062e-05 -2.4837744524062267e-06 0.9820267757053722 -0.011654747147949002 -0.010284347422156753 0.001790970298029041
39.0 -0.00916746485942024 0.0016265339585623533 0.9839966752903279 -0.010666681004695231 6.017671767611265e-05 -2.6161778150139334e-06 6.017671767611265e-05 -2.6161778150139334e-06
 0.9839966752903282 -0.010666681004695236 -0.00916746485942024 0.0016265339585623533 6.017671767611265e-05 -2.6161778150139334e-06 6.017671767611265e-05 -2.6161778150139334e-06
 6.017671767611265e-05 -2.6161778150139334e-06 6.017671767611265e-05 -2.6161778150139334e-06 -0.010277142145046152 0.0018374626894072173 0.9820352198993549 -0.011962581088717394
 6.017671767611265e-05 -2.6161778150139334e-06 6.017671767611265e-05 -2.6161778150139334e-06 0.9820352198993549 -0.011962581088717394 -0.010277142145046152 0.0018374626894072177
40.0 -0.009160649488095291 0.0016675436715960252 0.9840051635452352 -0.010941418509546996 6.171668287990889e-05 -2.7520158411623367e-06 6.171668287990889e-05 -2.7520158411623367e-06
 0.9840051635452354 -0.010941418509547001 -0.009160649488095291 0.0016675436715960252 6.171668287990889e-05 -2.7520158411623367e-06 6.171668287990889e-05 -2.7520158411623367e-06
 6.171668287990889e-05 -2.7520158411623367e-06 6.171668287990889e-05 -2.7520158411623367e-06 -0.010269385472546173 0.0018837893919163142 0.9820442972452427 -0.012270708569564475
 6.171668287990889e-05 -2.7520158411623367e-06 6.171668287990889e-05 -2.7520158411623367e-06 0.9820442972452427 -0.012270708569564475 -0.010269385472546173 0.0018837893919163146
41.0 -0.00915351123241237 0.001708455753198542 0.9840140477708671 -0.011216329009809296 6.325641819531577e-05 -2.891288193623973e-06 6.325641819531577e-05 -2.891288193623973e-06
 0.9840140477708673 -0.0112163290098093 -0.00915351123241237 0.001708455753198542 6.325641819531577e-05 -2.891288193623973e-06 6.325641819531577e-05 -2.891288193623973e-06
 6.325641819531577e-05 -2.891288193623973e-06 6.325641819531577e-05 -2.891288193623973e-06 -0.010261261203119943 0.0019300056351793577 0.9820537966924004 -0.012579031743797348
 6.325641819531577e-05 -2.891288193623973e-06 6.325641819531577e-05 -2.891288193623973e-06 0.9820537966924004 -0.012579031743797348 -0.010261261203119943 0.0019300056351793584
42.0 -0.009146372976729449 0.001749367834801059 0.984022931996499 -0.011491239510071595 6.47959178817053e-05 -3.0339945266425583e-06 6.47959178817053e-05 -3.0339945266425583e-06
 0.9840229319964993 -0.011491239510071598 -0.009146372976729449 0.001749367834801059 6.47959178817053e-05 -3.0339945266425583e-06 6.47959178817053e-05 -3.0339945266425583e-06
 6.47959178817053e-05 -3.0339945266425583e-06 6.47959178817053e-05 -3.0339945266425583e-06 -0.010253136933693712 0.0019762218784424015 0.9820632961395581 -0.01288735491803022
 6.47959178817053e-05 -3.0339945266425583e-06 6.47959178817053e-05 -3.0339945266425583e-06 0.9820632961395581 -0.01288735491803022 -0.010253136933693712 0.001976221878442402
43.0 -0.009139234721046528 0.0017902799164035757 0.984031816222131 -0.011766150010333895 6.633517619893696e-05 -3.1801344859336326e-06 6.633517619893696e-05 -3.1801344859336326e-06
 0.9840318162221311 -0.011766150010333896 -0.009139234721046528 0.0017902799164035757 6.633517619893696e-05 -3.1801344859336326e-06 6.633517619893696e-05 -3.1801344859336326e-06
 6.633517619893696e-05 -3.1801344859336326e-06 6.633517619893696e-05 -3.1801344859336326e-06 -0.010245012664267483 0.0020224381217054453 0.9820727955867159 -0.013195678092263092
 6.633517619893696e-05 -3.1801344859336326e-06 6.633517619893696e-05 -3.1801344859336326e-06 0.9820727955867159 -0.013195678092263092 -0.010245012664267483 0.0020224381217054457
44.0 -0.009132096465363605 0.0018311919980060925 0.984040700447763 -0.012041060510596193 6.787418740736944e-05 -3.3297077086852163e-06 6.787418740736944e-05 -3.3297077086852163e-06
 0.984040700447763 -0.012041060510596193 -0.009132096465363605 0.0018311919980060925 6.787418740736944e-05 -3.3297077086852163e-06 6.787418740736944e-05 -3.3297077086852163e-06
 6.787418740736944e-05 -3.3297077086852163e-06 6.787418740736944e-05 -3.3297077086852163e-06 -0.010236888394841253 0.0020686543649684887 0.9820822950338737 -0.013504001266495964
 6.787418740736944e-05 -3.3297077086852163e-06 6.787418740736944e-05 -3.3297077086852163e-06 0.9820822950338737 -0.013504001266495964 -0.010236888394841253 0.002068654364968489
45.0 -0.009124400802740417 0.0018719132478112906 0.9840502638568243 -0.012316308698488083 6.941294576787277e-05 -3.482713823558495e-06 6.941294576787277e-05 -3.482713823558495e-06
 0.9840502638568244 -0.012316308698488083 -0.009124400802740417 0.0018719132478112906 6.941294576787277e-05 -3.482713823558495e-06 6.941294576787277e-05 -3.482713823558495e-06
 6.941294576787277e-05 -3.482713823558495e-06 6.941294576787277e-05 -3.482713823558495e-06 -0.01022812945898795 0.002114654693853599 0.9820925175453257 -0.013812706438371243
 6.941294576787277e-05 -3.482713823558495e-06 6.941294576787277e-05 -3.482713823558495e-06 0.9820925175453257 -0.013812706438371243 -0.01022812945898795 0.0021146546938535997
46.0 -0.009116466251428545 0.0019125527125604949 0.9840601183444981 -0.012591701609649798 7.095144554183992e-05 -3.6391524506884984e-06 7.095144554183992e-05 -3.6391524506884984e-06
 0.9840601183444982 -0.012591701609649798 -0.009116466251428545 0.0019125527125604949 7.095144554183992e-05 -3.6391524506884984e-06 7.095144554183992e-05 -3.6391524506884984e-06
 7.095144554183992e-05 -3.6391524506884984e-06 7.095144554183992e-05 -3.6391524506884984e-06 -0.010219098523237333 0.002160562488005309 0.9821030499414752 -0.014121575323521842
 7.095144554183992e-05 -3.6391524506884984e-06 7.095144554183992e-05 -3.6391524506884984e-06 0.9821030499414753 -0.014121575323521842 -0.010219098523237333 0.0021605624880053098
47.0 -0.009108531700116673 0.001953192177309699 0.9840699728321721 -0.012867094520811511 7.248968099119885e-05 -3.799023201684817e-06 7.248968099119885e-05 -3.799023201684817e-06
 0.9840699728321721 -0.012867094520811513 -0.009108531700116673 0.001953192177309699 7.248968099119885e-05 -3.799023201684817e-06 7.248968099119885e-05 -3.799023201684817e-06
 7.248968099119885e-05 -3.799023201684817e-06 7.248968099119885e-05 -3.799023201684817e-06 -0.010210067587486714 0.0022064702821570194 0.9821135823376248 -0.01443044420867244
 7.248968099119885e-05 -3.799023201684817e-06 7.248968099119885e-05 -3.799023201684817e-06 0.9821135823376249 -0.01443044420867244 -0.010210067587486714 0.00220647028215702
48.0 -0.0091005971488048 0.001993831642058903 0.984079827319846 -0.013142487431973226 7.402764637842432e-05 -3.962325679632322e-06 7.402764637842432e-05 -3.962325679632322e-06
 0.984079827319846 -0.013142487431973228 -0.0091005971488048 0.001993831642058903 7.402764637842432e-05 -3.962325679632322e-06 7.402764637842432e-05 -3.962325679632322e-06
 7.402764637842432e-05 -3.962325679632322e-06 7.402764637842432e-05 -3.962325679632322e-06 -0.010201036651736096 0.0022523780763087295 0.9821241147337744 -0.014739313093823037
 7.402764637842432e-05 -3.962325679632322e-06 7.402764637842432e-05 -3.962325679632322e-06 0.9821241147337745 -0.014739313093823038 -0.010201036651736096 0.00225237807630873
49.0 -0.009092662597492926 0.0020344711068081074 0.9840896818075199 -0.01341788034313494 7.556533596654981e-05 -4.129059479091901e-06 7.556533596654981e-05 -4.129059479091901e-06
 0.98408968180752 -0.013417880343134942 -0.009092662597492926 0.0020344711068081074 7.556533596654981e-05 -4.129059479091901e-06 7.556533596654981e-05 -4.129059479091901e-06
 7.556533596654981e-05 -4.129059479091901e-06 7.556533596654981e-05 -4.129059479091901e-06 -0.010192005715985476 0.0022982858704604396 0.9821346471299239 -0.015048181978973634
 7.556533596654981e-05 -4.129059479091901e-06 7.556533596654981e-05 -4.129059479091901e-06 0.982134647129924 -0.015048181978973636 -0.010192005715985476 0.0022982858704604404
50.0 -0.009084101509906933 0.0020748709738848273 0.9841002910628953 -0.013693698732642128 7.710274401917931e-05 -4.29922418610122e-06 7.710274401917931e-05 -4.29922418610122e-06
 0.9841002910628954 -0.01369369873264213 -0.009084101509906933 0.0020748709738848273 7.710274401917931e-05 -4.29922418610122e-06 7.710274401917931e-05 -4.29922418610122e-06
 7.710274401917931e-05 -4.29922418610122e-06 7.710274401917931e-05 -4.29922418610122e-06 -0.010182261291815079 0.0023439225546239375 0.9821459816165743 -0.015357532163321983
 7.710274401917931e-05 -4.29922418610122e-06 7.710274401917931e-05 -4.29922418610122e-06 0.9821459816165744 -0.015357532163321985 -0.010182261291815079 0.0023439225546239384
51.0 -0.009075383788252407 0.0021152109415434263 0.9841110890101962 -0.013969623491735686 7.863986480049924e-05 -4.4728193781754895e-06 7.863986480049924e-05 -4.4728193781754895e-06
 0.9841110890101964 -0.013969623491735687 -0.009075383788252407 0.0021152109415434263 7.863986480049924e-05 -4.4728193781754895e-06 7.863986480049924e-05 -4.4728193781754895e-06
 7.863986480049924e-05 -4.4728193781754895e-06 7.863986480049924e-05 -4.4728193781754895e-06 -0.010172338495539737 0.002389491461290383 0.9821575166258497 -0.01566700267246977
 7.863986480049924e-05 -4.4728193781754895e-06 7.863986480049924e-05 -4.4728193781754895e-06 0.9821575166258498 -0.01566700267246977 -0.010172338495539737 0.0023894914612903836
52.0 -0.009066666066597883 0.002155550909202025 0.984121886957497 -0.014245548250829241 8.017669257529036e-05 -4.649844624308248e-06 8.017669257529036e-05 -4.649844624308248e-06
 0.9841218869574972 -0.014245548250829243 -0.009066666066597883 0.0021555509092020253 8.017669257529036e-05 -4.649844624308248e-06 8.017669257529036e-05 -4.649844624308248e-06
 8.017669257529036e-05 -4.649844624308248e-06 8.017669257529036e-05 -4.649844624308248e-06 -0.010162415699264394 0.0024350603679568284 0.9821690516351252 -0.015976473181617556
 8.017669257529036e-05 -4.649844624308248e-06 8.017669257529036e-05 -4.649844624308248e-06 0.9821690516351252 -0.015976473181617556 -0.010162415699264394 0.002435060367956829
53.0 -0.009057948344943358 0.002195890876860624 0.984132684904798 -0.014521473009922799 8.171322160893951e-05 -4.830299484972171e-06 8.171322160893951e-05 -4.830299484972171e-06
 0.9841326849047981 -0.0145214730099228 -0.009057948344943358 0.0021958908768606243 8.171322160893951e-05 -4.830299484972171e-06 8.171322160893951e-05 -4.830299484972171e-06
 8.171322160893951e-05 -4.830299484972171e-06 8.171322160893951e-05 -4.830299484972171e-06 -0.010152492902989052 0.0024806292746232736 0.9821805866444007 -0.01628594369076534
 8.171322160893951e-05 -4.830299484972171e-06 8.171322160893951e-05 -4.830299484972171e-06 0.9821805866444008 -0.01628594369076534 -0.010152492902989052 0.0024806292746232745
54.0 -0.009049230623288834 0.0022362308445192224 0.9841434828520988 -0.014797397769016356 8.324944616745167e-05 -5.014183512119887e-06 8.324944616745167e-05 -5.014183512119887e-06
 0.9841434828520991 -0.014797397769016358 -0.009049230623288834 0.002236230844519223 8.324944616745167e-05 -5.014183512119887e-06 8.324944616745167e-05 -5.014183512119887e-06
 8.324944616745167e-05 -5.014183512119887e-06 8.324944616745167e-05 -5.014183512119887e-06 -0.01014257010671371 0.002526198181289719 0.9821921216536762 -0.016595414199913127
 8.324944616745167e-05 -5.014183512119887e-06 8.324944616745167e-05 -5.014183512119887e-06 0.9821921216536762 -0.016595414199913127 -0.01014257010671371 0.0025261981812897197
55.0 -0.009039821274420018 0.002276276136860112 0.9841551102281048 -0.015073844366900893 8.478536051746166e-05 -5.201496249184809e-06 8.478536051746166e-05 -5.201496249184809e-06
 0.984155110228105 -0.015073844366900895 -0.009039821274420018 0.0022762761368601125 8.478536051746166e-05 -5.201496249184809e-06 8.478536051746166e-05 -5.201496249184809e-06
 8.478536051746166e-05 -5.201496249184809e-06 8.478536051746166e-05 -5.201496249184809e-06 -0.01013185956612977 0.00257143365045631 0.9822045366644987 -0.016905475012822902
 8.478536051746166e-05 -5.201496249184809e-06 8.478536051746166e-05 -5.201496249184809e-06 0.9822045366644987 -0.0169054750128229 -0.01013185956612977 0.002571433650456311
56.0 -0.009030335078082947 0.0023162886874990335 0.9841668297628557 -0.015350348946873316 8.632095892624604e-05 -5.39223723108199e-06 8.632095892624604e-05 -5.39223723108199e-06
 0.9841668297628559 -0.015350348946873317 -0.009030335078082947 0.0023162886874990344 8.632095892624604e-05 -5.39223723108199e-06 8.632095892624604e-05 -5.39223723108199e-06
 8.632095892624604e-05 -5.39223723108199e-06 8.632095892624604e-05 -5.39223723108199e-06 -0.01012106149840043 0.002616632071011806 0.9822170494532709 -0.017215601415039562
 8.632095892624604e-05 -5.39223723108199e-06 8.632095892624604e-05 -5.39223723108199e-06 0.9822170494532708 -0.01721560141503956 -0.01012106149840043 0.0026166320710118074
57.0 -0.009020848881745876 0.0023563012381379554 0.9841785492976066 -0.01562685352684574 8.7856235661735e-05 -5.586405984208982e-06 8.7856235661735e-05 -5.586405984208982e-06
 0.9841785492976067 -0.01562685352684574 -0.009020848881745876 0.0023563012381379563 8.7856235661735e-05 -5.586405984208982e-06 8.7856235661735e-05 -5.586405984208982e-06
 8.7856235661735e-05 -5.586405984208982e-06 8.7856235661735e-05 -5.586405984208982e-06 -0.010110263430671089 0.002661830491567302 0.9822295622420432 -0.017525727817256222
 8.7856235661735e-05 -5.586405984208982e-06 8.7856235661735e-05 -5.586405984208982e-06 0.9822295622420429 -0.01752572781725622 -0.010110263430671089 0.0026618304915673034
58.0 -0.009011362685408806 0.002396313788776877 0.9841902688323576 -0.01590335810681816 8.939118499252428e-05 -5.784002026446723e-06 8.939118499252428e-05 -5.784002026446723e-06
 0.9841902688323576 -0.01590335810681816 -0.009011362685408806 0.0023963137887768778 8.939118499252428e-05 -5.784002026446723e-06 8.939118499252428e-05 -5.784002026446723e-06
 8.939118499252428e-05 -5.784002026446723e-06 8.939118499252428e-05 -5.784002026446723e-06 -0.010099465362941748 0.002707028912122798 0.9822420750308153 -0.017835854219472883
 8.939118499252428e-05 -5.784002026446723e-06 8.939118499252428e-05 -5.784002026446723e-06 0.9822420750308151 -0.017835854219472876 -0.010099465362941748 0.0027070289121228
59.0 -0.009001876489071735 0.002436326339415799 0.9842019883671085 -0.016179862686790586 9.092580118788691e-05 -5.985024867160431e-06 9.092580118788691e-05 -5.985024867160431e-06
 0.9842019883671085 -0.016179862686790586 -0.009001876489071735 0.0024363263394157997 9.092580118788691e-05 -5.985024867160431e-06 9.092580118788691e-05 -5.985024867160431e-06
 9.092580118788691e-05 -5.985024867160431e-06 9.092580118788691e-05 -5.985024867160431e-06 -0.010088667295212407 0.002752227332678294 0.9822545878195875 -0.018145980621689543
 9.092580118788691e-05 -5.985024867160431e-06 9.092580118788691e-05 -5.985024867160431e-06 0.9822545878195872 -0.018145980621689536 -0.010088667295212407 0.0027522273326782963
60.0 -0.008991635900423824 0.0024759856265264136 0.984214600488547 -0.0164569935037267 9.246007851778515e-05 -6.1894740072005215e-06 9.246007851778515e-05 -6.1894740072005215e-06
 0.9842146004885471 -0.0164569935037267 -0.008991635900423824 0.0024759856265264145 9.246007851778515e-05 -6.1894740072005215e-06 9.246007851778515e-05 -6.1894740072005215e-06
 9.246007851778515e-05 -6.1894740072005215e-06 9.246007851778515e-05 -6.1894740072005215e-06 -0.010077009858611612 0.002797025991138812 0.9822680455318998 -0.018456815416556725
 9.246007851778515e-05 -6.1894740072005215e-06 9.246007851778515e-05 -6.1894740072005215e-06 0.9822680455318996 -0.01845681541655672 -0.010077009858611612 0.0027970259911388132
61.0 -0.00898139531177591 0.0025156449136370285 0.9842272126099857 -0.016734124320662812 9.39940112528823e-05 -6.397348938903536e-06 9.39940112528823e-05 -6.397348938903536e-06
 0.9842272126099857 -0.016734124320662815 -0.00898139531177591 0.0025156449136370294 9.39940112528823e-05 -6.397348938903536e-06 9.39940112528823e-05 -6.397348938903536e-06
 9.39940112528823e-05 -6.397348938903536e-06 9.39940112528823e-05 -6.397348938903536e-06 -0.010065352422010817 0.00284182464959933 0.982281503244212 -0.018767650211423906
 9.39940112528823e-05 -6.397348938903536e-06 9.39940112528823e-05 -6.397348938903536e-06 0.9822815032442119 -0.018767650211423906 -0.010065352422010817 0.0028418246495993307
62.0 -0.008971154723127999 0.0025553042007476438 0.9842398247314242 -0.017011255137598925 9.552759366455463e-05 -6.608649146093085e-06 9.552759366455463e-05 -6.608649146093085e-06
 0.9842398247314244 -0.017011255137598928 -0.008971154723127999 0.0025553042007476438 9.552759366455463e-05 -6.608649146093085e-06 9.552759366455463e-05 -6.608649146093085e-06
 9.552759366455463e-05 -6.608649146093085e-06 9.552759366455463e-05 -6.608649146093085e-06 -0.010053694985410021 0.0028866233080598477 0.9822949609565244 -0.01907848500629109
 9.552759366455463e-05 -6.608649146093085e-06 9.552759366455463e-05 -6.608649146093085e-06 0.9822949609565244 -0.019078485006291092 -0.010053694985410021 0.002886623308059848
63.0 -0.008960914134480087 0.0025949634878582586 0.9842524368528629 -0.017288385954535038 9.706082002490319e-05 -6.823374104080805e-06 9.706082002490319e-05 -6.823374104080805e-06
 0.984252436852863 -0.01728838595453504 -0.008960914134480087 0.0025949634878582586 9.706082002490319e-05 -6.823374104080805e-06 9.706082002490319e-05 -6.823374104080805e-06
 9.706082002490319e-05 -6.823374104080805e-06 9.706082002490319e-05 -6.823374104080805e-06 -0.010042037548809226 0.0029314219665203655 0.9823084186688366 -0.01938931980115827
 9.706082002490319e-05 -6.823374104080805e-06 9.706082002490319e-05 -6.823374104080805e-06 0.9823084186688367 -0.019389319801158277 -0.010042037548809226 0.002931421966520365
64.0 -0.008950599782094752 0.002634584953086295 0.9842651354201493 -0.017565583955072253 9.859368460676561e-05 -7.041523279667345e-06 9.859368460676561e-05 -7.041523279667345e-06
 0.9842651354201494 -0.017565583955072257 -0.008950599782094752 0.002634584953086295 9.859368460676561e-05 -7.041523279667345e-06 9.859368460676561e-05 -7.041523279667345e-06
 9.859368460676561e-05 -7.041523279667345e-06 9.859368460676561e-05 -7.041523279667345e-06 -0.010030296066557727 0.002976177821968778 0.9823219676831744 -0.01970023059271274
 9.859368460676561e-05 -7.041523279667345e-06 9.859368460676561e-05 -7.041523279667345e-06 0.9823219676831746 -0.01970023059271275 -0.010030296066557727 0.0029761778219687778
65.0 -0.008939621556072603 0.002673866021371123 0.984278612000066 -0.017843386608019384 0.00010012618168372813 -7.263096131143358e-06 0.00010012618168372813 -7.263096131143358e-06
 0.9842786120000662 -0.017843386608019388 -0.008939621556072603 0.0026738660213711228 0.00010012618168372813 -7.263096131143358e-06 0.00010012618168372813 -7.263096131143358e-06
 0.00010012618168372813 -7.263096131143358e-06 0.00010012618168372813 -7.263096131143358e-06 -0.010017798173449909 0.0030205484503082474 0.9823363384157419 -0.02001182535445279
 0.00010012618168372813 -7.263096131143358e-06 0.00010012618168372813 -7.263096131143358e-06 0.982336338415742 -0.020011825354452797 -0.010017798173449909 0.0030205484503082474
66.0 -0.008928643330050454 0.0027131470896559515 0.9842920885799828 -0.018121189260966515 0.00010165830553013724 -7.488092108290502e-06 0.00010165830553013724 -7.488092108290502e-06
 0.984292088579983 -0.01812118926096652 -0.008928643330050454 0.0027131470896559506 0.00010165830553013724 -7.488092108290502e-06 0.00010165830553013724 -7.488092108290502e-06
 0.00010165830553013724 -7.488092108290502e-06 0.00010165830553013724 -7.488092108290502e-06 -0.010005300280342088 0.003064919078647717 0.9823507091483092 -0.02032342011619284
 0.00010165830553013724 -7.488092108290502e-06 0.00010165830553013724 -7.488092108290502e-06 0.9823507091483095 -0.020323420116192845 -0.010005300280342088 0.003064919078647717
67.0 -0.008917665104028305 0.0027524281579407793 0.9843055651598996 -0.018398991913913646 0.00010319005042111163 -7.716510652382467e-06 0.00010319005042111163 -7.716510652382467e-06
 0.9843055651598998 -0.01839899191391365 -0.008917665104028305 0.002752428157940779 0.00010319005042111163 -7.716510652382467e-06 0.00010319005042111163 -7.716510652382467e-06
 0.00010319005042111163 -7.716510652382467e-06 0.00010319005042111163 -7.716510652382467e-06 -0.00999280238723427 0.003109289706987186 0.9823650798808767 -0.02063501487793289
 0.00010319005042111163 -7.716510652382467e-06 0.00010319005042111163 -7.716510652382467e-06 0.9823650798808768 -0.020635014877932893 -0.00999280238723427 0.0031092897069871866
68.0 -0.008906686878006158 0.0027917092262256075 0.9843190417398165 -0.01867679456686078 0.00010472141063255406 -7.948351196186018e-06 0.00010472141063255406 -7.948351196186018e-06
 0.9843190417398165 -0.01867679456686078 -0.008906686878006158 0.0027917092262256067 0.00010472141063255406 -7.948351196186018e-06 0.00010472141063255406 -7.948351196186018e-06
 0.00010472141063255406 -7.948351196186018e-06 0.00010472141063255406 -7.948351196186018e-06 -0.00998030449412645 0.0031536603353266553 0.9823794506134442 -0.02094660963967294
 0.00010472141063255406 -7.948351196186018e-06 0.00010472141063255406 -7.948351196186018e-06 0.9823794506134442 -0.02094660963967294 -0.00998030449412645 0.003153660335326656
69.0 -0.008895564643748322 0.0028309096571681332 0.9843326841047128 -0.018954740052634002 0.00010625238044116324 -8.183613163962058e-06 0.00010625238044116324 -8.183613163962058e-06
 0.9843326841047128 -0.018954740052634002 -0.008895564643748322 0.002830909657168132 0.00010625238044116324 -8.183613163962058e-06 0.00010625238044116324 -8.183613163962058e-06
 0.00010625238044116324 -8.183613163962058e-06 0.00010625238044116324 -8.183613163962058e-06 -0.009967642482069905 0.003197939701097343 0.9823939959044475 -0.021258365969407514
 0.00010625238044116324 -8.183613163962058e-06 0.00010625238044116324 -8.183613163962058e-06 0.9823939959044475 -0.021258365969407514 -0.009967642482069905 0.003197939701097344
70.0 -0.00888386637654774 0.0028697875387414485 0.984346989609527 -0.019233256869711578 0.00010778295412444555 -8.422295971466678e-06 0.00010778295412444555 -8.422295971466678e-06
 0.984346989609527 -0.019233256869711578 -0.00888386637654774 0.0028697875387414477 0.00010778295412444555 -8.422295971466678e-06 0.00010778295412444555 -8.422295971466678e-06
 0.00010778295412444555 -8.422295971466678e-06 0.00010778295412444555 -8.422295971466678e-06 -0.00995432399421846 0.0032418540165929043 0.9824092394291944 -0.021570768571120173
 0.00010778295412444555 -8.422295971466678e-06 0.00010778295412444555 -8.422295971466678e-06 0.9824092394291944 -0.021570768571120176 -0.00995432399421846 0.0032418540165929047
71.0 -0.008872168109347156 0.002908665420314764 0.9843612951143413 -0.019511773686789156 0.00010931312596072697 -8.66439902595227e-06 0.00010931312596072697 -8.66439902595227e-06
 0.9843612951143413 -0.019511773686789156 -0.008872168109347156 0.002908665420314763 0.00010931312596072697 -8.66439902595227e-06 0.00010931312596072697 -8.66439902595227e-06
 0.00010931312596072697 -8.66439902595227e-06 0.00010931312596072697 -8.66439902595227e-06 -0.009941005506367014 0.0032857683320884653 0.9824244829539412 -0.021883171172832835
 0.00010931312596072697 -8.66439902595227e-06 0.00010931312596072697 -8.66439902595227e-06 0.9824244829539414 -0.021883171172832838 -0.009941005506367014 0.0032857683320884653
72.0 -0.008860469842146574 0.002947543301888079 0.9843756006191556 -0.019790290503866735 0.00011084289022916494 -8.909921726168613e-06 0.00011084289022916494 -8.909921726168613e-06
 0.9843756006191556 -0.019790290503866735 -0.008860469842146574 0.0029475433018880783 0.00011084289022916494 -8.909921726168613e-06 0.00011084289022916494 -8.909921726168613e-06
 0.00011084289022916494 -8.909921726168613e-06 0.00011084289022916494 -8.909921726168613e-06 -0.009927687018515569 0.003329682647584027 0.9824397264786882 -0.022195573774545497
 0.00011084289022916494 -8.909921726168613e-06 0.00011084289022916494 -8.909921726168613e-06 0.9824397264786882 -0.0221955737745455 -0.009927687018515569 0.003329682647584026
73.0 -0.00884877157494599 0.002986421183461394 0.9843899061239699 -0.020068807320944314 0.00011237224120976017 -9.158863462364009e-06 0.00011237224120976017 -9.158863462364009e-06
 0.9843899061239699 -0.020068807320944314 -0.00884877157494599 0.002986421183461394 0.00011237224120976017 -9.158863462364009e-06 0.00011237224120976017 -9.158863462364009e-06
 0.00011237224120976017 -9.158863462364009e-06 0.00011237224120976017 -9.158863462364009e-06 -0.009914368530664122 0.0033735969630795883 0.982454970003435 -0.022507976376258156
 0.00011237224120976017 -9.158863462364009e-06 0.00011237224120976017 -9.158863462364009e-06 0.9824549700034351 -0.022507976376258162 -0.009914368530664122 0.0033735969630795865
74.0 -0.00883686248516792 0.0030251713532181567 0.9844044524332979 -0.02034755160614495 0.00011390117318336846 -9.41122361628639e-06 0.00011390117318336846 -9.41122361628639e-06
 0.9844044524332979 -0.02034755160614495 -0.00883686248516792 0.0030251713532181567 0.00011390117318336846 -9.41122361628639e-06 0.00011390117318336846 -9.41122361628639e-06
 0.00011390117318336846 -9.41122361628639e-06 0.00011390117318336846 -9.41122361628639e-06 -0.009900809728446399 0.0034173667264005988 0.9824704664120111 -0.022820636279493062
 0.00011390117318336846 -9.41122361628639e-06 0.00011390117318336846 -9.41122361628639e-06 0.9824704664120111 -0.02282063627949307 -0.009900809728446399 0.003417366726400597
75.0 -0.008824461476042381 0.003063623528736296 0.9844195606198244 -0.020626826650299388 0.00011542968043171268 -9.66700156118451e-06 0.00011542968043171268 -9.66700156118451e-06
 0.9844195606198245 -0.02062682665029939 -0.008824461476042381 0.003063623528736296 0.00011542968043171268 -9.66700156118451e-06 0.00011542968043171268 -9.66700156118451e-06
 0.00011542968043171268 -9.66700156118451e-06 0.00011542968043171268 -9.66700156118451e-06 -0.00988669019270736 0.0034607992013143247 0.9824865528828551 -0.023133896552946537
 0.00011542968043171268 -9.66700156118451e-06 0.00011542968043171268 -9.66700156118451e-06 0.9824865528828551 -0.02313389655294654 -0.00988669019270736 0.0034607992013143234
76.0 -0.008812060466916842 0.0031020757042544357 0.9844346688063509 -0.020906101694453828 0.00011695775723739434 -9.926196661809075e-06 0.00011695775723739434 -9.926196661809075e-06
 0.9844346688063511 -0.020906101694453835 -0.008812060466916842 0.0031020757042544357 0.00011695775723739434 -9.926196661809075e-06 0.00011695775723739434 -9.926196661809075e-06
 0.00011695775723739434 -9.926196661809075e-06 0.00011695775723739434 -9.926196661809075e-06 -0.009872570656968324 0.00350423167622805 0.9825026393536992 -0.023447156826400015
 0.00011695775723739434 -9.926196661809075e-06 0.00011695775723739434 -9.926196661809075e-06 0.9825026393536992 -0.023447156826400015 -0.009872570656968324 0.0035042316762280497
77.0 -0.008799659457791303 0.0031405278797725753 0.9844497769928774 -0.02118537673860827 0.0001184853978839057 -1.0188808274413945e-05 0.0001184853978839057 -1.0188808274413945e-05
 0.9844497769928777 -0.021185376738608278 -0.008799659457791303 0.0031405278797725753 0.0001184853978839057 -1.0188808274413945e-05 0.0001184853978839057 -1.0188808274413945e-05
 0.0001184853978839057 -1.0188808274413945e-05 0.0001184853978839057 -1.0188808274413945e-05 -0.009858451121229286 0.0035476641511417756 0.9825187258245434 -0.02376041709985349
 0.0001184853978839057 -1.0188808274413945e-05 0.0001184853978839057 -1.0188808274413945e-05 0.9825187258245432 -0.023760417099853486 -0.009858451121229286 0.003547664151141776
78.0 -0.008787258448665763 0.003178980055290715 0.984464885179404 -0.02146465178276271 0.00012001259665564145 -1.0454835746757326e-05 0.00012001259665564145 -1.0454835746757326e-05
 0.9844648851794043 -0.021464651782762717 -0.008787258448665763 0.003178980055290715 0.00012001259665564145 -1.0454835746757326e-05 0.00012001259665564145 -1.0454835746757326e-05
 0.00012001259665564145 -1.0454835746757326e-05 0.00012001259665564145 -1.0454835746757326e-05 -0.009844331585490248 0.0035910966260555015 0.9825348122953874 -0.024073677373306967
 0.00012001259665564145 -1.0454835746757326e-05 0.00012001259665564145 -1.0454835746757326e-05 0.9825348122953872 -0.02407367737330696 -0.009844331585490248 0.0035910966260555024
79.0 -0.008774584251812729 0.0032172524288096084 0.9844802992487223 -0.021744245828925163 0.00012153934783791062 -1.0724278418102984e-05 0.00012153934783791062 -1.0724278418102984e-05
 0.9844802992487227 -0.021744245828925174 -0.008774584251812729 0.0032172524288096084 0.00012153934783791062 -1.0724278418102984e-05 0.00012153934783791062 -1.0724278418102984e-05
 0.00012153934783791062 -1.0724278418102984e-05 0.00012153934783791062 -1.0724278418102984e-05 -0.0098299005608065 0.003634325580132269 0.9825512187390946 -0.02438729848227344
 0.00012153934783791062 -1.0724278418102984e-05 0.00012153934783791062 -1.0724278418102984e-05 0.9825512187390943 -0.024387298482273435 -0.0098299005608065 0.0036343255801322702
80.0 -0.00876150027336845 0.003255255099329633 0.9844961721422283 -0.022024318378099643 0.0001230656457169483 -1.0997135619221489e-05 0.0001230656457169483 -1.0997135619221489e-05
 0.9844961721422285 -0.02202431837809965 -0.00876150027336845 0.0032552550993296325 0.0001230656457169483 -1.0997135619221489e-05 0.0001230656457169483 -1.0997135619221489e-05
 0.0001230656457169483 -1.0997135619221489e-05 0.0001230656457169483 -1.0997135619221489e-05 -0.009815002302705683 0.0036772492529535987 0.9825681051420962 -0.02470146084450942
 0.0001230656457169483 -1.0997135619221489e-05 0.0001230656457169483 -1.0997135619221489e-05 0.9825681051420961 -0.024701460844509412 -0.009815002302705683 0.0036772492529536
81.0 -0.00874841629492417 0.0032932577698496575 0.9845120450357343 -0.02230439092727412 0.00012459148457992763 -1.1273406672391434e-05 0.00012459148457992763 -1.1273406672391434e-05
 0.9845120450357344 -0.022304390927274122 -0.00874841629492417 0.0032932577698496566 0.00012459148457992763 -1.1273406672391434e-05 0.00012459148457992763 -1.1273406672391434e-05
 0.00012459148457992763 -1.1273406672391434e-05 0.00012459148457992763 -1.1273406672391434e-05 -0.009800104044604865 0.0037201729257749284 0.9825849915450979 -0.025015623206745396
 0.00012459148457992763 -1.1273406672391434e-05 0.00012459148457992763 -1.1273406672391434e-05 0.9825849915450979 -0.025015623206745392 -0.009800104044604865 0.0037201729257749297
82.0 -0.008735332316479891 0.003331260440369682 0.9845279179292402 -0.022584463476448595 0.00012611685871497156 -1.1553090891400732e-05 0.00012611685871497156 -1.1553090891400732e-05
 0.9845279179292402 -0.0225844634764486 -0.008735332316479891 0.0033312604403696808 0.00012611685871497156 -1.1553090891400732e-05 0.00012611685871497156 -1.1553090891400732e-05
 0.00012611685871497156 -1.1553090891400732e-05 0.00012611685871497156 -1.1553090891400732e-05 -0.00978520578650405 0.003763096598596258 0.9826018779480997 -0.02532978556898137
 0.00012611685871497156 -1.1553090891400732e-05 0.00012611685871497156 -1.1553090891400732e-05 0.9826018779480997 -0.02532978556898137 -0.00978520578650405 0.003763096598596259
83.0 -0.008722248338035612 0.0033692631108897067 0.9845437908227462 -0.022864536025623074 0.00012764176241116454 -1.1836187581547852e-05 0.00012764176241116454 -1.1836187581547852e-05
 0.9845437908227461 -0.02286453602562307 -0.008722248338035612 0.0033692631108897045 0.00012764176241116454 -1.1836187581547852e-05 0.00012764176241116454 -1.1836187581547852e-05
 0.00012764176241116454 -1.1836187581547852e-05 0.00012764176241116454 -1.1836187581547852e-05 -0.009770307528403233 0.003806020271417588 0.9826187643511014 -0.025643947931217347
 0.00012764176241116454 -1.1836187581547852e-05 0.00012764176241116454 -1.1836187581547852e-05 0.9826187643511015 -0.02564394793121735 -0.009770307528403233 0.003806020271417589
84.0 -0.008708832615641527 0.0034070310715770113 0.9845600275092053 -0.023145026225850466 0.00012916618995856461 -1.2122696039643157e-05 0.00012916618995856461 -1.2122696039643157e-05
 0.9845600275092051 -0.023145026225850462 -0.008708832615641527 0.0034070310715770095 0.00012916618995856461 -1.2122696039643157e-05 0.00012916618995856461 -1.2122696039643157e-05
 0.00012916618995856461 -1.2122696039643157e-05 0.00012916618995856461 -1.2122696039643157e-05 -0.009755030910621984 0.003848678241774873 0.9826360296789328 -0.025958582710093086
 0.00012916618995856461 -1.2122696039643157e-05 0.00012916618995856461 -1.2122696039643157e-05 0.9826360296789329 -0.02595858271009309 -0.009755030910621984 0.0038486782417748735
85.0 -0.008695085149297637 0.003444564322431596 0.9845766279886174 -0.023425934077130773 0.00013069013564821503 -1.2412615554010173e-05 0.00013069013564821503 -1.2412615554010173e-05
 0.9845766279886173 -0.023425934077130773 -0.008695085149297637 0.0034445643224315947 0.00013069013564821503 -1.2412615554010173e-05 0.00013069013564821503 -1.2412615554010173e-05
 0.00013069013564821503 -1.2412615554010173e-05 0.00013069013564821503 -1.2412615554010173e-05 -0.009739375933160302 0.0038910705096681128 0.9826536739315939 -0.02627368990560859
 0.00013069013564821503 -1.2412615554010173e-05 0.00013069013564821503 -1.2412615554010173e-05 0.982653673931594 -0.026273689905608594 -0.009739375933160302 0.0038910705096681128
86.0 -0.008681337682953746 0.0034820975732861807 0.9845932284680295 -0.023706841928411083 0.0001322135937721562 -1.2705945404486955e-05 0.0001322135937721562 -1.2705945404486955e-05
 0.9845932284680295 -0.023706841928411083 -0.008681337682953746 0.00348209757328618 0.0001322135937721562 -1.2705945404486955e-05 0.0001322135937721562 -1.2705945404486955e-05
 0.0001322135937721562 -1.2705945404486955e-05 0.0001322135937721562 -1.2705945404486955e-05 -0.00972372095569862 0.0039334627775613525 0.982671318184255 -0.026588797101124096
 0.0001322135937721562 -1.2705945404486955e-05 0.0001322135937721562 -1.2705945404486955e-05 0.982671318184255 -0.026588797101124096 -0.00972372095569862 0.0039334627775613525
87.0 -0.008667590216609856 0.0035196308241407653 0.9846098289474418 -0.02398774977969139 0.00013373655862343732 -1.3002684862427378e-05 0.00013373655862343732 -1.3002684862427378e-05
 0.9846098289474418 -0.02398774977969139 -0.008667590216609856 0.0035196308241407658 0.00013373655862343732 -1.3002684862427378e-05 0.00013373655862343732 -1.3002684862427378e-05
 0.00013373655862343732 -1.3002684862427378e-05 0.00013373655862343732 -1.3002684862427378e-05 -0.009708065978236938 0.003975855045454592 0.9826889624369162 -0.026903904296639598
 0.00013373655862343732 -1.3002684862427378e-05 0.00013373655862343732 -1.3002684862427378e-05 0.9826889624369162 -0.0269039042966396 -0.009708065978236938 0.003975855045454592
88.0 -0.008653842750265966 0.00355716407499535 0.9846264294268539 -0.024268657630971698 0.0001352590244961285 -1.330283319070254e-05 0.0001352590244961285 -1.330283319070254e-05
 0.984626429426854 -0.0242686576309717 -0.008653842750265966 0.003557164074995351 0.0001352590244961285 -1.330283319070254e-05 0.0001352590244961285 -1.330283319070254e-05
 0.0001352590244961285 -1.330283319070254e-05 0.0001352590244961285 -1.330283319070254e-05 -0.009692411000775256 0.004018247313347832 0.9827066066895772 -0.027219011492155103
 0.0001352590244961285 -1.330283319070254e-05 0.0001352590244961285 -1.330283319070254e-05 0.9827066066895772 -0.027219011492155103 -0.009692411000775256 0.004018247313347831
89.0 -0.008639709696804323 0.0035944025299612286 0.984643442331571 -0.02455009003422597 0.0001367809856853323 -1.3606389643702121e-05 0.0001367809856853323 -1.3606389643702121e-05
 0.9846434423315711 -0.024550090034225973 -0.008639709696804323 0.0035944025299612294 0.0001367809856853323 -1.3606389643702121e-05 0.0001367809856853323 -1.3606389643702121e-05
 0.0001367809856853323 -1.3606389643702121e-05 0.0001367809856853323 -1.3606389643702121e-05 -0.00967631611901023 0.0040603058420909935 0.9827246783058498 -0.027534711991958546
 0.0001367809856853323 -1.3606389643702121e-05 0.0001367809856853323 -1.3606389643702121e-05 0.9827246783058498 -0.027534711991958546 -0.00967631611901023 0.004060305842090993
90.0 -0.008625319585264178 0.003631444454334636 0.9846607301864915 -0.02483187213879622 0.00013830243648719562 -1.3913353467335747e-05 0.00013830243648719562 -1.3913353467335747e-05
 0.9846607301864916 -0.02483187213879622 -0.008625319585264178 0.003631444454334637 0.00013830243648719562 -1.3913353467335747e-05 0.00013830243648719562 -1.3913353467335747e-05
 0.00013830243648719562 -1.3913353467335747e-05 0.00013830243648719562 -1.3913353467335747e-05 -0.00965992796770964 0.004102141878067436 0.9827430348311964 -0.027850808027953953
 0.00013830243648719562 -1.3913353467335747e-05 0.00013830243648719562 -1.3913353467335747e-05 0.9827430348311964 -0.027850808027953953 -0.00965992796770964 0.004102141878067436
91.0 -0.008610929473724035 0.0036684863787080435 0.984678018041412 -0.025113654243366465 0.0001398233711989217 -1.4223723899034431e-05 0.0001398233711989217 -1.4223723899034431e-05
 0.984678018041412 -0.025113654243366465 -0.008610929473724035 0.0036684863787080444 0.0001398233711989217 -1.4223723899034431e-05 0.0001398233711989217 -1.4223723899034431e-05
 0.0001398233711989217 -1.4223723899034431e-05 0.0001398233711989217 -1.4223723899034431e-05 -0.009643539816409053 0.004143977914043878 0.9827613913565432 -0.028166904063949356
 0.0001398233711989217 -1.4223723899034431e-05 0.0001398233711989217 -1.4223723899034431e-05 0.9827613913565432 -0.028166904063949356 -0.009643539816409053 0.004143977914043879
92.0 -0.00859653936218389 0.003705528303081451 0.9846953058963325 -0.02539543634793671 0.00014134378411878156 -1.4537500167751964e-05 0.00014134378411878156 -1.4537500167751964e-05
 0.9846953058963325 -0.025395436347936715 -0.00859653936218389 0.0037055283030814515 0.00014134378411878156 -1.4537500167751964e-05 0.00014134378411878156 -1.4537500167751964e-05
 0.00014134378411878156 -1.4537500167751964e-05 0.00014134378411878156 -1.4537500167751964e-05 -0.009627151665108464 0.004185813950020321 0.9827797478818899 -0.02848300009994476
 0.00014134378411878156 -1.4537500167751964e-05 0.00014134378411878156 -1.4537500167751964e-05 0.9827797478818899 -0.02848300009994476 -0.009627151665108464 0.004185813950020321
93.0 -0.008582149250643746 0.003742570227454859 0.9847125937512529 -0.02567721845250696 0.00014286366954612621 -1.485468149396638e-05 0.00014286366954612621 -1.485468149396638e-05
 0.9847125937512529 -0.02567721845250696 -0.008582149250643746 0.003742570227454859 0.00014286366954612621 -1.485468149396638e-05 0.00014286366954612621 -1.485468149396638e-05
 0.00014286366954612621 -1.485468149396638e-05 0.00014286366954612621 -1.485468149396638e-05 -0.009610763513807874 0.004227649985996763 0.9827981044072366 -0.028799096135940165
 0.00014286366954612621 -1.485468149396638e-05 0.00014286366954612621 -1.485468149396638e-05 0.9827981044072366 -0.028799096135940165 -0.009610763513807874 0.004227649985996764
94.0 -0.008567323997089784 0.0037792556004402193 0.9847303403029881 -0.025959633919636287 0.00014438302178139813 -1.5175267089681362e-05 0.00014438302178139813 -1.5175267089681362e-05
 0.9847303403029881 -0.025959633919636287 -0.008567323997089784 0.003779255600440219 0.00014438302178139813 -1.5175267089681362e-05 0.00014438302178139813 -1.5175267089681362e-05
 0.00014438302178139813 -1.5175267089681362e-05 0.00014438302178139813 -1.5175267089681362e-05 -0.009593878767260183 0.004269082322567324 0.9828169339908902 -0.029115908580927052
 0.00014438302178139813 -1.5175267089681362e-05 0.00014438302178139813 -1.5175267089681362e-05 0.9828169339908902 -0.029115908580927052 -0.009593878767260183 0.004269082322567325
95.0 -0.00855231225410133 0.0038157881656878446 0.9847482834390725 -0.02624232082786236 0.00014590183512614344 -1.549925615842777e-05 0.00014590183512614344 -1.549925615842777e-05
 0.9847482834390725 -0.02624232082786236 -0.00855231225410133 0.0038157881656878446 0.00014590183512614344 -1.549925615842777e-05 0.00014590183512614344 -1.549925615842777e-05
 0.00014590183512614344 -1.549925615842777e-05 0.00014590183512614344 -1.549925615842777e-05 -0.009576781194178019 0.004310341645106793 0.9828359663138182 -0.02943302805833886
 0.00014590183512614344 -1.549925615842777e-05 0.00014590183512614344 -1.549925615842777e-05 0.9828359663138182 -0.02943302805833886 -0.009576781194178019 0.004310341645106794
96.0 -0.008537300511112874 0.0038523207309354704 0.9847662265751569 -0.02652500773608844 0.00014742010388302322 -1.5826647895265064e-05 0.00014742010388302322 -1.5826647895265064e-05
 0.9847662265751569 -0.02652500773608844 -0.008537300511112874 0.00385232073093547 0.00014742010388302322 -1.5826647895265064e-05 0.00014742010388302322 -1.5826647895265064e-05
 0.00014742010388302322 -1.5826647895265064e-05 0.00014742010388302322 -1.5826647895265064e-05 -0.009559683621095855 0.0043516009676462615 0.9828549986367462 -0.029750147535750674
 0.00014742010388302322 -1.5826647895265064e-05 0.00014742010388302322 -1.5826647895265064e-05 0.9828549986367461 -0.029750147535750667 -0.009559683621095855 0.004351600967646262
97.0 -0.008522288768124418 0.003888853296183096 0.9847841697112413 -0.026807694644314515 0.00014893782235582577 -1.6157441486782853e-05 0.00014893782235582577 -1.6157441486782853e-05
 0.9847841697112413 -0.026807694644314515 -0.008522288768124418 0.0038888532961830957 0.00014893782235582577 -1.6157441486782853e-05 0.00014893782235582577 -1.6157441486782853e-05
 0.00014893782235582577 -1.6157441486782853e-05 0.00014893782235582577 -1.6157441486782853e-05 -0.00954258604801369 0.004392860290185731 0.9828740309596742 -0.030067267013162483
 0.00014893782235582577 -1.6157441486782853e-05 0.00014893782235582577 -1.6157441486782853e-05 0.9828740309596741 -0.030067267013162476 -0.00954258604801369 0.004392860290185731
98.0 -0.008507277025135962 0.003925385861430722 0.9848021128473258 -0.02709038155254059 0.0001504549848494781 -1.6491636111102362e-05 0.0001504549848494781 -1.6491636111102362e-05
 0.9848021128473258 -0.02709038155254059 -0.008507277025135962 0.003925385861430721 0.0001504549848494781 -1.6491636111102362e-05 0.0001504549848494781 -1.6491636111102362e-05
 0.0001504549848494781 -1.6491636111102362e-05 0.0001504549848494781 -1.6491636111102362e-05 -0.009525488474931527 0.004434119612725199 0.9828930632826022 -0.030384386490574292
 0.0001504549848494781 -1.6491636111102362e-05 0.0001504549848494781 -1.6491636111102362e-05 0.982893063282602 -0.030384386490574285 -0.009525488474931527 0.004434119612725199
99.0 -0.00849178562390813 0.0039614958567388905 0.984820546014197 -0.02737382161014609 0.00015197158567005793 -1.682923093787802e-05 0.00015197158567005793 -1.682923093787802e-05
 0.984820546014197 -0.02737382161014609 -0.00849178562390813 0.00396149585673889 0.00015197158567005793 -1.682923093787802e-05 0.00015197158567005793 -1.682923093787802e-05
 0.00015197158567005793 -1.682923093787802e-05 0.00015197158567005793 -1.682923093787802e-05 -0.009507843303924485 0.004474900453051719 0.9829125974726886 -0.03070235781260676
 0.00015197158567005793 -1.682923093787802e-05 0.00015197158567005793 -1.682923093787802e-05 0.9829125974726883 -0.030702357812606752 -0.009507843303924485 0.00447490045305172
100.0 -0.008476174308120452 0.003997500209562194 0.9848391016887649 -0.027657449955096444 0.00015348761912480538 -1.7170225128298958e-05 0.00015348761912480538 -1.7170225128298958e-05
 0.984839101688765 -0.027657449955096447 -0.008476174308120452 0.003997500209562194 0.00015348761912480538 -1.7170225128298958e-05 0.00015348761912480538 -1.7170225128298958e-05
 0.00015348761912480538 -1.7170225128298958e-05 0.00015348761912480538 -1.7170225128298958e-05 -0.009490061233436221 0.004515561672825002 0.9829322571295643 -0.031020542095794388
 0.00015348761912480538 -1.7170225128298958e-05 0.00015348761912480538 -1.7170225128298958e-05 0.9829322571295642 -0.031020542095794384 -0.009490061233436221 0.004515561672825003
101.0 -0.008460562992332775 0.004033504562385498 0.9848576573633329 -0.0279410783000468 0.00015500307952213475 -1.751461783509058e-05 0.00015500307952213475 -1.751461783509058e-05
 0.984857657363333 -0.027941078300046805 -0.008460562992332775 0.0040335045623854995 0.00015500307952213475 -1.751461783509058e-05 0.00015500307952213475 -1.751461783509058e-05
 0.00015500307952213475 -1.751461783509058e-05 0.00015500307952213475 -1.751461783509058e-05 -0.009472279162947959 0.004556222892598284 0.9829519167864402 -0.03133872637898202
 0.00015500307952213475 -1.751461783509058e-05 0.00015500307952213475 -1.751461783509058e-05 0.9829519167864401 -0.03133872637898202 -0.009472279162947959 0.004556222892598286
102.0 -0.008444951676545099 0.004069508915208802 0.9848762130379007 -0.02822470664499716 0.0001565179611716464 -1.7862408202516154e-05 0.0001565179611716464 -1.7862408202516154e-05
 0.984876213037901 -0.02822470664499716 -0.008444951676545099 0.004069508915208804 0.0001565179611716464 -1.7862408202516154e-05 0.0001565179611716464 -1.7862408202516154e-05
 0.0001565179611716464 -1.7862408202516154e-05 0.0001565179611716464 -1.7862408202516154e-05 -0.009454497092459695 0.004596884112371567 0.9829715764433161 -0.03165691066216965
 0.0001565179611716464 -1.7862408202516154e-05 0.0001565179611716464 -1.7862408202516154e-05 0.9829715764433161 -0.03165691066216964 -0.009454497092459695 0.0045968841123715685
103.0 -0.008429340360757421 0.004105513268032106 0.9848947687124687 -0.028508334989947513 0.00015803225838413842 -1.8213595366378397e-05 0.00015803225838413842 -1.8213595366378397e-05
 0.984894768712469 -0.028508334989947516 -0.008429340360757421 0.0041055132680321085 0.00015803225838413842 -1.8213595366378397e-05 0.00015803225838413842 -1.8213595366378397e-05
 0.00015803225838413842 -1.8213595366378397e-05 0.00015803225838413842 -1.8213595366378397e-05 -0.009436715021971433 0.00463754533214485 0.982991236100192 -0.031975094945357274
 0.00015803225838413842 -1.8213595366378397e-05 0.00015803225838413842 -1.8213595366378397e-05 0.982991236100192 -0.031975094945357274 -0.009436715021971433 0.004637545332144852
104.0 -0.008413209538146274 0.004141026992329246 0.9849138371983831 -0.028792837071353578 0.00015954596547161867 -1.8568178454021114e-05 0.00015954596547161867 -1.8568178454021114e-05
 0.9849138371983834 -0.02879283707135358 -0.008413209538146274 0.004141026992329248 0.00015954596547161867 -1.8568178454021114e-05 0.00015954596547161867 -1.8568178454021114e-05
 0.00015954596547161867 -1.8568178454021114e-05 0.00015954596547161867 -1.8568178454021114e-05 -0.009418339632185108 0.00467765094939106 0.9830114167345887 -0.03229426744401295
 0.00015954596547161867 -1.8568178454021114e-05 0.00015954596547161867 -1.8568178454021114e-05 0.9830114167345887 -0.03229426744401295 -0.009418339632185108 0.004677650949391062
105.0 -0.008397020992554743 0.0041764862023457 0.9849329626633361 -0.029077436234588052 0.00016105907674731607 -1.8926156584330745e-05 0.00016105907674731607 -1.8926156584330745e-05
 0.9849329626633363 -0.02907743623458806 -0.008397020992554743 0.004176486202345702 0.00016105907674731607 -1.8926156584330745e-05 0.00016105907674731607 -1.8926156584330745e-05
 0.00016105907674731607 -1.8926156584330745e-05 0.00016105907674731607 -1.8926156584330745e-05 -0.00939989831803233 0.00471769483302315 0.9830316552553766 -0.03261354974438731
 0.00016105907674731607 -1.8926156584330745e-05 0.00016105907674731607 -1.8926156584330745e-05 0.9830316552553766 -0.03261354974438731 -0.00939989831803233 0.004717694833023153
106.0 -0.00838083244696321 0.004211945412362155 0.9849520881282889 -0.02936203539782253 0.00016257158652569306 -1.9287528867738113e-05 0.00016257158652569306 -1.9287528867738113e-05
 0.9849520881282893 -0.029362035397822537 -0.00838083244696321 0.0042119454123621565 0.00016257158652569306 -1.9287528867738113e-05 0.00016257158652569306 -1.9287528867738113e-05
 0.00016257158652569306 -1.9287528867738113e-05 0.00016257158652569306 -1.9287528867738113e-05 -0.009381457003879552 0.004757738716655241 0.9830518937761645 -0.032932832044761655
 0.00016257158652569306 -1.9287528867738113e-05 0.00016257158652569306 -1.9287528867738113e-05 0.9830518937761645 -0.032932832044761655 -0.009381457003879552 0.004757738716655244
107.0 -0.008364643901371678 0.004247404622378609 0.9849712135932419 -0.029646634561057005 0.00016408348912245668 -1.965229440621998e-05 0.00016408348912245668 -1.965229440621998e-05
 0.9849712135932421 -0.02964663456105701 -0.008364643901371678 0.00424740462237861 0.00016408348912245668 -1.965229440621998e-05 0.00016408348912245668 -1.965229440621998e-05
 0.00016408348912245668 -1.965229440621998e-05 0.00016408348912245668 -1.965229440621998e-05 -0.009363015689726775 0.004797782600287332 0.9830721322969525 -0.03325211434513601
 0.00016408348912245668 -1.965229440621998e-05 0.00016408348912245668 -1.965229440621998e-05 0.9830721322969525 -0.03325211434513601 -0.009363015689726775 0.004797782600287334
108.0 -0.008348455355780146 0.004282863832395064 0.9849903390581948 -0.029931233724291482 0.00016559477885457098 -2.00204522933008e-05 0.00016559477885457098 -2.00204522933008e-05
 0.9849903390581951 -0.02993123372429149 -0.008348455355780146 0.004282863832395065 0.00016559477885457098 -2.00204522933008e-05 0.00016559477885457098 -2.00204522933008e-05
 0.00016559477885457098 -2.00204522933008e-05 0.00016559477885457098 -2.00204522933008e-05 -0.009344574375573997 0.0048378264839194236 0.9830923708177404 -0.03357139664551036
 0.00016559477885457098 -2.00204522933008e-05 0.00016559477885457098 -2.00204522933008e-05 0.9830923708177404 -0.03357139664551036 -0.009344574375573997 0.004837826483919425
109.0 -0.008331712637066729 0.004317761696932372 0.9850099924522014 -0.03021683386052432 0.00016710545004026834 -2.0392001614054336e-05 0.00016710545004026834 -2.0392001614054336e-05
 0.9850099924522018 -0.030216833860524324 -0.008331712637066729 0.004317761696932373 0.00016710545004026834 -2.0392001614054336e-05 0.00016710545004026834 -2.0392001614054336e-05
 0.00016710545004026834 -2.0392001614054336e-05 0.00016710545004026834 -2.0392001614054336e-05 -0.009325499883193039 0.004877234626161516 0.9831131406986862 -0.03389181102333859
 0.00016710545004026834 -2.0392001614054336e-05 0.00016710545004026834 -2.0392001614054336e-05 0.9831131406986862 -0.03389181102333859 -0.009325499883193039 0.004877234626161518
110.0 -0.00831496991835331 0.004352659561469681 0.9850296458462082 -0.030502433996757155 0.0001686154969990614 -2.0766941445105427e-05 0.0001686154969990614 -2.0766941445105427e-05
 0.9850296458462084 -0.03050243399675716 -0.00831496991835331 0.004352659561469681 0.0001686154969990614 -2.0766941445105427e-05 0.0001686154969990614 -2.0766941445105427e-05
 0.0001686154969990614 -2.0766941445105427e-05 0.0001686154969990614 -2.0766941445105427e-05 -0.009306425390812079 0.0049166427684036096 0.9831339105796318 -0.03421222540116682
 0.0001686154969990614 -2.0766941445105427e-05 0.0001686154969990614 -2.0766941445105427e-05 0.9831339105796318 -0.03421222540116682 -0.009306425390812079 0.004916642768403611
111.0 -0.008298227199639893 0.004387557426006989 0.9850492992402149 -0.030788034132989993 0.00017012491405175498 -2.114527085463168e-05 0.00017012491405175498 -2.114527085463168e-05
 0.985049299240215 -0.030788034132989996 -0.008298227199639893 0.004387557426006989 0.00017012491405175498 -2.114527085463168e-05 0.00017012491405175498 -2.114527085463168e-05
 0.00017012491405175498 -2.114527085463168e-05 0.00017012491405175498 -2.114527085463168e-05 -0.009287350898431121 0.004956050910645702 0.9831546804605776 -0.03453263977899505
 0.00017012491405175498 -2.114527085463168e-05 0.00017012491405175498 -2.114527085463168e-05 0.9831546804605776 -0.03453263977899505 -0.009287350898431121 0.004956050910645704
112.0 -0.008281484480926474 0.0044224552905442974 0.9850689526342217 -0.031073634269222827 0.00017163369552045758 -2.152698890236518e-05 0.00017163369552045758 -2.152698890236518e-05
 0.9850689526342217 -0.03107363426922283 -0.008281484480926474 0.004422455290544297 0.00017163369552045758 -2.152698890236518e-05 0.00017163369552045758 -2.152698890236518e-05
 0.00017163369552045758 -2.152698890236518e-05 0.00017163369552045758 -2.152698890236518e-05 -0.009268276406050163 0.004995459052887795 0.9831754503415233 -0.034853054156823285
 0.00017163369552045758 -2.152698890236518e-05 0.00017163369552045758 -2.152698890236518e-05 0.9831754503415233 -0.034853054156823285 -0.009268276406050163 0.004995459052887796
113.0 -0.00826468868815208 0.004457295569829307 0.9850886546719743 -0.03135933719431209 0.00017314183572859337 -2.19120946395943e-05 0.00017314183572859337 -2.19120946395943e-05
 0.9850886546719743 -0.03135933719431209 -0.00826468868815208 0.004457295569829306 0.00017314183572859337 -2.19120946395943e-05 0.00017314183572859337 -2.19120946395943e-05
 0.00017314183572859337 -2.19120946395943e-05 0.00017314183572859337 -2.19120946395943e-05 -0.009249141245391198 0.005034801971277336 0.9831962686483573 -0.035173584783255184
 0.00017314183572859337 -2.19120946395943e-05 0.00017314183572859337 -2.19120946395943e-05 0.9831962686483573 -0.035173584783255184 -0.009249141245391198 0.005034801971277337
114.0 -0.008247415228828886 0.004491617581843635 0.9851087945034405 -0.031645965219109125 0.00017464932900091378 -2.230058710916541e-05 0.00017464932900091378 -2.230058710916541e-05
 0.9851087945034404 -0.031645965219109125 -0.008247415228828886 0.004491617581843634 0.00017464932900091378 -2.230058710916541e-05 0.00017464932900091378 -2.230058710916541e-05
 0.00017464932900091378 -2.230058710916541e-05 0.00017464932900091378 -2.230058710916541e-05 -0.009229460070230176 0.005073557874993907 0.9832175227881855 -0.035495161647120056
 0.00017464932900091378 -2.230058710916541e-05 0.00017464932900091378 -2.230058710916541e-05 0.9832175227881855 -0.035495161647120056 -0.009229460070230176 0.005073557874993908
115.0 -0.008230141769505692 0.0045259395938579625 0.9851289343349067 -0.03193259324390617 0.00017615616966350955 -2.26924653454847e-05 0.00017615616966350955 -2.26924653454847e-05
 0.9851289343349066 -0.03193259324390616 -0.008230141769505692 0.004525939593857962 0.00017615616966350955 -2.26924653454847e-05 0.00017615616966350955 -2.26924653454847e-05
 0.00017615616966350955 -2.26924653454847e-05 0.00017615616966350955 -2.26924653454847e-05 -0.009209778895069154 0.005112313778710479 0.9832387769280136 -0.03581673851098492
 0.00017615616966350955 -2.26924653454847e-05 0.00017615616966350955 -2.26924653454847e-05 0.9832387769280139 -0.03581673851098493 -0.009209778895069154 0.005112313778710479
116.0 -0.008212868310182498 0.004560261605872289 0.9851490741663728 -0.03221922126870321 0.000177662352043822 -2.308772837451995e-05 0.000177662352043822 -2.308772837451995e-05
 0.9851490741663727 -0.032219221268703205 -0.008212868310182498 0.0045602616058722885 0.000177662352043822 -2.308772837451995e-05 0.000177662352043822 -2.308772837451995e-05
 0.000177662352043822 -2.308772837451995e-05 0.000177662352043822 -2.308772837451995e-05 -0.009190097719908133 0.005151069682427051 0.9832600310678419 -0.036138315374849794
 0.000177662352043822 -2.308772837451995e-05 0.000177662352043822 -2.308772837451995e-05 0.9832600310678421 -0.0361383153748498 -0.009190097719908133 0.00515106968242705
117.0 -0.008195594850859304 0.004594583617886617 0.985169213997839 -0.032505849293500255 0.0001791678704706554 -2.348637521380237e-05 0.0001791678704706554 -2.348637521380237e-05
 0.9851692139978387 -0.03250584929350024 -0.008195594850859304 0.004594583617886616 0.0001791678704706554 -2.348637521380237e-05 0.0001791678704706554 -2.348637521380237e-05
 0.0001791678704706554 -2.348637521380237e-05 0.0001791678704706554 -2.348637521380237e-05 -0.009170416544747111 0.005189825586143623 0.9832812852076701 -0.03645989223871466
 0.0001791678704706554 -2.348637521380237e-05 0.0001791678704706554 -2.348637521380237e-05 0.9832812852076703 -0.036459892238714674 -0.009170416544747111 0.00518982558614362
118.0 -0.008178219856988831 0.004628787767511807 0.9851894420850186 -0.032792687765743546 0.00018067271927418816 -2.3888404872428395e-05 0.00018067271927418816 -2.3888404872428395e-05
 0.9851894420850184 -0.03279268776574353 -0.008178219856988831 0.004628787767511806 0.00018067271927418816 -2.3888404872428395e-05 0.00018067271927418816 -2.3888404872428395e-05
 0.00018067271927418816 -2.3888404872428395e-05 0.00018067271927418816 -2.3888404872428395e-05 -0.009150619251484287 0.005228447978091239 0.9833026259537344 -0.036781707097811506
 0.00018067271927418816 -2.3888404872428395e-05 0.00018067271927418816 -2.3888404872428395e-05 0.9833026259537347 -0.03678170709781152 -0.009150619251484287 0.005228447978091235
119.0 -0.00816043872492924 0.004662520467580451 0.9852100231950521 -0.03308036802777185 0.000182176892785985 -2.4293816351061582e-05 0.000182176892785985 -2.4293816351061582e-05
 0.985210023195052 -0.033080368027771846 -0.00816043872492924 0.00466252046758045 0.000182176892785985 -2.4293816351061582e-05 0.000182176892785985 -2.4293816351061582e-05
 0.000182176892785985 -2.4293816351061582e-05 0.000182176892785985 -2.4293816351061582e-05 -0.00913035748581425 0.00526653632296303 0.9833243131247434 -0.03710447393783624
 0.000182176892785985 -2.4293816351061582e-05 0.000182176892785985 -2.4293816351061582e-05 0.9833243131247437 -0.037104473937836245 -0.00913035748581425 0.005266536322963028
120.0 -0.008142657592869652 0.004696253167649094 0.9852306043050857 -0.03336804828980016 0.0001836803853390085 -2.4702608641934414e-05 0.0001836803853390085 -2.4702608641934414e-05
 0.9852306043050857 -0.033368048289800153 -0.008142657592869652 0.0046962531676490935 0.0001836803853390085 -2.4702608641934414e-05 0.0001836803853390085 -2.4702608641934414e-05
 0.0001836803853390085 -2.4702608641934414e-05 0.0001836803853390085 -2.4702608641934414e-05 -0.009110095720144215 0.00530462466783482 0.9833460002957526 -0.03742724077786097
 0.0001836803853390085 -2.4702608641934414e-05 0.0001836803853390085 -2.4702608641934414e-05 0.9833460002957527 -0.03742724077786098 -0.009110095720144215 0.00530462466783482
121.0 -0.008124876460810062 0.004729985867717739 0.9852511854151194 -0.03365572855182847 0.00018518319126763078 -2.511478072885023e-05 0.00018518319126763078 -2.511478072885023e-05
 0.9852511854151194 -0.03365572855182847 -0.008124876460810062 0.004729985867717738 0.00018518319126763078 -2.511478072885023e-05 0.00018518319126763078 -2.511478072885023e-05
 0.00018518319126763078 -2.511478072885023e-05 0.00018518319126763078 -2.511478072885023e-05 -0.009089833954474179 0.005342713012706612 0.9833676874667616 -0.03775000761788571
 0.00018518319126763078 -2.511478072885023e-05 0.00018518319126763078 -2.511478072885023e-05 0.9833676874667616 -0.0377500076178857 -0.009089833954474179 0.005342713012706613
122.0 -0.008107095328750473 0.004763718567786382 0.9852717665251529 -0.033943408813856775 0.0001866853049076456 -2.5530331587185082e-05 0.0001866853049076456 -2.5530331587185082e-05
 0.985271766525153 -0.033943408813856775 -0.008107095328750473 0.004763718567786381 0.0001866853049076456 -2.5530331587185082e-05 0.0001866853049076456 -2.5530331587185082e-05
 0.0001866853049076456 -2.5530331587185082e-05 0.0001866853049076456 -2.5530331587185082e-05 -0.009069572188804142 0.005380801357578402 0.9833893746377708 -0.03807277445791044
 0.0001866853049076456 -2.5530331587185082e-05 0.0001866853049076456 -2.5530331587185082e-05 0.9833893746377705 -0.038072774457910435 -0.009069572188804142 0.005380801357578405
123.0 -0.008089169384524189 0.004797270564675944 0.9852924651372297 -0.03423141012699033 0.00018818672059627952 -2.5949260183889636e-05 0.00018818672059627952 -2.5949260183889636e-05
 0.9852924651372299 -0.03423141012699033 -0.008089169384524189 0.004797270564675943 0.00018818672059627952 -2.5949260183889636e-05 0.00018818672059627952 -2.5949260183889636e-05
 0.00018818672059627952 -2.5949260183889636e-05 0.00018818672059627952 -2.5949260183889636e-05 -0.009049144715277192 0.005418684984887436 0.9834111748569192 -0.0383959043651823
 0.00018818672059627952 -2.5949260183889636e-05 0.00018818672059627952 -2.5949260183889636e-05 0.983411174856919 -0.03839590436518229 -0.009049144715277192 0.005418684984887441
124.0 -0.008070905545242285 0.0048304009208143175 0.9853134379207408 -0.03452016055936947 0.00018968743267220437 -2.637156547749114e-05 0.00018968743267220437 -2.637156547749114e-05
 0.9853134379207409 -0.03452016055936947 -0.008070905545242285 0.0048304009208143175 0.00018968743267220437 -2.637156547749114e-05 0.00018968743267220437 -2.637156547749114e-05
 0.00018968743267220437 -2.637156547749114e-05 0.00018968743267220437 -2.637156547749114e-05 -0.009028330590084104 0.005456090937883373 0.9834332388550595 -0.03871988142936411
 0.00018968743267220437 -2.637156547749114e-05 0.00018968743267220437 -2.637156547749114e-05 0.9834332388550593 -0.0387198814293641 -0.009028330590084104 0.005456090937883377
125.0 -0.00805264170596038 0.00486353127695269 0.9853344107042518 -0.0348089109917486 0.00019118743547554822 -2.679724641809531e-05 0.00019118743547554822 -2.679724641809531e-05
 0.9853344107042519 -0.0348089109917486 -0.00805264170596038 0.004863531276952691 0.00019118743547554822 -2.679724641809531e-05 0.00019118743547554822 -2.679724641809531e-05
 0.00019118743547554822 -2.679724641809531e-05 0.00019118743547554822 -2.679724641809531e-05 -0.009007516464891018 0.005493496890879309 0.9834553028531999 -0.03904385849354592
 0.00019118743547554822 -2.679724641809531e-05 0.00019118743547554822 -2.679724641809531e-05 0.9834553028531997 -0.03904385849354591 -0.009007516464891018 0.0054934968908793135
126.0 -0.008034377866678476 0.004896661633091063 0.9853553834877629 -0.035097661424127735 0.0001926867233479079 -2.7226301947388354e-05 0.0001926867233479079 -2.7226301947388354e-05
 0.985355383487763 -0.035097661424127735 -0.008034377866678476 0.004896661633091064 0.0001926867233479079 -2.7226301947388354e-05 0.0001926867233479079 -2.7226301947388354e-05
 0.0001926867233479079 -2.7226301947388354e-05 0.0001926867233479079 -2.7226301947388354e-05 -0.00898670233969793 0.005530902843875246 0.9834773668513404 -0.03936783555772773
 0.0001926867233479079 -2.7226301947388354e-05 0.0001926867233479079 -2.7226301947388354e-05 0.9834773668513401 -0.03936783555772772 -0.00898670233969793 0.00553090284387525
127.0 -0.00801611402739657 0.004929791989229436 0.985376356271274 -0.03538641185650687 0.0001941852906323599 -2.7658730998638853e-05 0.0001941852906323599 -2.7658730998638853e-05
 0.985376356271274 -0.03538641185650687 -0.00801611402739657 0.004929791989229437 0.0001941852906323599 -2.7658730998638853e-05 0.0001941852906323599 -2.7658730998638853e-05
 0.0001941852906323599 -2.7658730998638853e-05 0.0001941852906323599 -2.7658730998638853e-05 -0.008965888214504844 0.005568308796871181 0.9834994308494807 -0.039691812621909545
 0.0001941852906323599 -2.7658730998638853e-05 0.0001941852906323599 -2.7658730998638853e-05 0.9834994308494804 -0.03969181262190954 -0.008965888214504844 0.0055683087968711855
128.0 -0.007997666440231914 0.004962676953180018 0.9853974717484495 -0.035675601890814014 0.00019568313167347295 -2.8094532496699843e-05 0.00019568313167347295 -2.8094532496699843e-05
 0.9853974717484495 -0.035675601890814014 -0.007997666440231914 0.0049626769531800185 0.00019568313167347295 -2.8094532496699843e-05 0.00019568313167347295 -2.8094532496699843e-05
 0.00019568313167347295 -2.8094532496699843e-05 0.00019568313167347295 -2.8094532496699843e-05 -0.008944863712731139 0.005605436719976314 0.9835216296447564 -0.040016286784395415
 0.00019568313167347295 -2.8094532496699843e-05 0.00019568313167347295 -2.8094532496699843e-05 0.9835216296447562 -0.04001628678439541 -0.008944863712731139 0.005605436719976318
129.0 -0.00797894323124313 0.004995193828848911 0.9854188012661217 -0.035965451328013175 0.00019718024081731908 -2.8533705358010745e-05 0.00019718024081731908 -2.8533705358010745e-05
 0.9854188012661217 -0.035965451328013175 -0.00797894323124313 0.004995193828848911 0.00019718024081731908 -2.8533705358010745e-05 0.00019718024081731908 -2.8533705358010745e-05
 0.00019718024081731908 -2.8533705358010745e-05 0.00019718024081731908 -2.8533705358010745e-05 -0.008923523646086508 0.005642147598245242 0.9835440306357351 -0.040341506594337384
 0.00019718024081731908 -2.8533705358010745e-05 0.00019718024081731908 -2.8533705358010745e-05 0.9835440306357349 -0.04034150659433738 -0.008923523646086508 0.005642147598245244
130.0 -0.007960220022254343 0.005027710704517804 0.9854401307837939 -0.036255300765212335 0.00019867661241148565 -2.897624849059942e-05 0.00019867661241148565 -2.897624849059942e-05
 0.9854401307837939 -0.036255300765212335 -0.007960220022254343 0.005027710704517802 0.00019867661241148565 -2.897624849059942e-05 0.00019867661241148565 -2.897624849059942e-05
 0.00019867661241148565 -2.897624849059942e-05 0.00019867661241148565 -2.897624849059942e-05 -0.008902183579441877 0.005678858476514169 0.9835664316267139 -0.040666726404279346
 0.00019867661241148565 -2.897624849059942e-05 0.00019867661241148565 -2.897624849059942e-05 0.9835664316267138 -0.040666726404279346 -0.008902183579441877 0.00567885847651417
131.0 -0.007941496813265558 0.005060227580186697 0.9854614603014662 -0.03654515020241149 0.00020017224080508711 -2.942216079408418e-05 0.00020017224080508711 -2.942216079408418e-05
 0.9854614603014662 -0.03654515020241149 -0.007941496813265558 0.005060227580186694 0.00020017224080508711 -2.942216079408418e-05 0.00020017224080508711 -2.942216079408418e-05
 0.00020017224080508711 -2.942216079408418e-05 0.00020017224080508711 -2.942216079408418e-05 -0.008880843512797247 0.005715569354783096 0.9835888326176926 -0.04099194621422131
 0.00020017224080508711 -2.942216079408418e-05 0.00020017224080508711 -2.942216079408418e-05 0.9835888326176926 -0.040991946214221316 -0.008880843512797247 0.005715569354783096
132.0 -0.007922773604276774 0.00509274445585559 0.9854827898191384 -0.03683499963961065 0.0002016671203487765 -2.9871441159675867e-05 0.0002016671203487765 -2.9871441159675867e-05
 0.9854827898191384 -0.03683499963961065 -0.007922773604276774 0.0050927444558555865 0.0002016671203487765 -2.9871441159675867e-05 0.0002016671203487765 -2.9871441159675867e-05
 0.0002016671203487765 -2.9871441159675867e-05 0.0002016671203487765 -2.9871441159675867e-05 -0.008859503446152616 0.005752280233052024 0.9836112336086713 -0.04131716602416328
 0.0002016671203487765 -2.9871441159675867e-05 0.0002016671203487765 -2.9871441159675867e-05 0.9836112336086713 -0.041317166024163285 -0.008859503446152616 0.005752280233052022
133.0 -0.007903832833915554 0.005124949512893912 0.985504273419433 -0.03712540645516674 0.0002031612453947575 -3.0324088470179902e-05 0.0002031612453947575 -3.0324088470179902e-05
 0.985504273419433 -0.03712540645516674 -0.007903832833915554 0.005124949512893908 0.0002031612453947575 -3.0324088470179902e-05 0.0002031612453947575 -3.0324088470179902e-05
 0.0002031612453947575 -3.0324088470179902e-05 0.0002031612453947575 -3.0324088470179902e-05 -0.008837914128123488 0.005788637777391087 0.9836337755570712 -0.04164301608594488
 0.0002031612453947575 -3.0324088470179902e-05 0.0002031612453947575 -3.0324088470179902e-05 0.9836337755570712 -0.04164301608594489 -0.008837914128123488 0.0057886377773910865
134.0 -0.0078846745021819 0.005156842751301663 0.9855259111023501 -0.03741637064907975 0.00020465461029679576 -3.0780101599998346e-05 0.00020465461029679576 -3.0780101599998346e-05
 0.9855259111023501 -0.03741637064907975 -0.0078846745021819 0.005156842751301659 0.00020465461029679576 -3.0780101599998346e-05 0.00020465461029679576 -3.0780101599998346e-05
 0.00020465461029679576 -3.0780101599998346e-05 0.00020465461029679576 -3.0780101599998346e-05 -0.008816075558709863 0.005824641987800287 0.9836564584628923 -0.04196949639956612
 0.00020465461029679576 -3.0780101599998346e-05 0.00020465461029679576 -3.0780101599998346e-05 0.9836564584628923 -0.041969496399566125 -0.008816075558709863 0.005824641987800287
135.0 -0.007865516170448245 0.005188735989709414 0.9855475487852672 -0.03770733484299277 0.00020614720941023097 -3.123947941513205e-05 0.00020614720941023097 -3.123947941513205e-05
 0.9855475487852672 -0.03770733484299277 -0.007865516170448245 0.00518873598970941 0.00020614720941023097 -3.123947941513205e-05 0.00020614720941023097 -3.123947941513205e-05
 0.00020614720941023097 -3.123947941513205e-05 0.00020614720941023097 -3.123947941513205e-05 -0.008794236989296237 0.005860646198209488 0.9836791413687135 -0.04229597671318736
 0.00020614720941023097 -3.123947941513205e-05 0.00020614720941023097 -3.123947941513205e-05 0.9836791413687134 -0.04229597671318736 -0.008794236989296237 0.005860646198209488
136.0 -0.00784635783871459 0.005220629228117165 0.9855691864681843 -0.03799829903690578 0.00020763903709198822 -3.1702220773182703e-05 0.00020763903709198822 -3.1702220773182703e-05
 0.9855691864681843 -0.03799829903690578 -0.00784635783871459 0.005220629228117161 0.00020763903709198822 -3.1702220773182703e-05 0.00020763903709198822 -3.1702220773182703e-05
 0.00020763903709198822 -3.1702220773182703e-05 0.00020763903709198822 -3.1702220773182703e-05 -0.008772398419882612 0.005896650408618687 0.9837018242745346 -0.042622457026808606
 0.00020763903709198822 -3.1702220773182703e-05 0.00020763903709198822 -3.1702220773182703e-05 0.9837018242745345 -0.0426224570268086 -0.008772398419882612 0.005896650408618688
137.0 -0.007827199506980936 0.005252522466524916 0.9855908241511013 -0.0382892632308188 0.0002091300877005902 -3.216832452335502e-05 0.0002091300877005902 -3.216832452335502e-05
 0.9855908241511013 -0.0382892632308188 -0.007827199506980936 0.0052525224665249115 0.0002091300877005902 -3.216832452335502e-05 0.0002091300877005902 -3.216832452335502e-05
 0.0002091300877005902 -3.216832452335502e-05 0.0002091300877005902 -3.216832452335502e-05 -0.008750559850468987 0.005932654619027887 0.9837245071803558 -0.042948937340429844
 0.0002091300877005902 -3.216832452335502e-05 0.0002091300877005902 -3.216832452335502e-05 0.9837245071803555 -0.04294893734042984 -0.008750559850468987 0.005932654619027889
138.0 -0.0078077951647300935 0.00528403588275665 0.9856126152145741 -0.038580904415802704 0.0002106203555961682 -3.263778950645884e-05 0.0002106203555961682 -3.263778950645884e-05
 0.9856126152145741 -0.038580904415802704 -0.0078077951647300935 0.005284035882756647 0.0002106203555961682 -3.263778950645884e-05 0.0002106203555961682 -3.263778950645884e-05
 0.0002106203555961682 -3.263778950645884e-05 0.0002106203555961682 -3.263778950645884e-05 -0.008728439223684287 0.005968228388414358 0.9837473235181673 -0.043276183106365454
 0.0002106203555961682 -3.263778950645884e-05 0.0002106203555961682 -3.263778950645884e-05 0.9837473235181671 -0.04327618310636545 -0.008728439223684287 0.00596822838841436
139.0 -0.007788226815467789 0.005315296084204373 0.9856345085317507 -0.0388729969281672 0.00021210983514047456 -3.311061455491128e-05 0.00021210983514047456 -3.311061455491128e-05
 0.9856345085317506 -0.0388729969281672 -0.007788226815467789 0.0053152960842043715 0.00021210983514047456 -3.311061455491128e-05 0.00021210983514047456 -3.311061455491128e-05
 0.00021210983514047456 -3.311061455491128e-05 0.00021210983514047456 -3.311061455491128e-05 -0.008706130558652207 0.006003515197119009 0.983770228810639 -0.04360393917384398
 0.00021210983514047456 -3.311061455491128e-05 0.00021210983514047456 -3.311061455491128e-05 0.9837702288106389 -0.043603939173843975 -0.008706130558652207 0.0060035151971190095
140.0 -0.007768658466205486 0.005346556285652096 0.9856564018489273 -0.0391650894405317 0.0002135985206968939 -3.3586798492738984e-05 0.0002135985206968939 -3.3586798492738984e-05
 0.9856564018489271 -0.039165089440531695 -0.007768658466205486 0.005346556285652096 0.0002135985206968939 -3.3586798492738984e-05 0.0002135985206968939 -3.3586798492738984e-05
 0.0002135985206968939 -3.3586798492738984e-05 0.0002135985206968939 -3.3586798492738984e-05 -0.008683821893620125 0.006038802005823659 0.9837931341031108 -0.0439316952413225
 0.0002135985206968939 -3.3586798492738984e-05 0.0002135985206968939 -3.3586798492738984e-05 0.9837931341031108 -0.0439316952413225 -0.008683821893620125 0.0060388020058236595
141.0 -0.007749090116943183 0.005377816487099819 0.985678295166104 -0.0394571819528962 0.00021508640663045491 -3.406634013558024e-05 0.00021508640663045491 -3.406634013558024e-05
 0.9856782951661036 -0.03945718195289619 -0.007749090116943183 0.005377816487099821 0.00021508640663045491 -3.406634013558024e-05 0.00021508640663045491 -3.406634013558024e-05
 0.00021508640663045491 -3.406634013558024e-05 0.00021508640663045491 -3.406634013558024e-05 -0.008661513228588045 0.0060740888145283094 0.9838160393955825 -0.044259451308801025
 0.00021508640663045491 -3.406634013558024e-05 0.00021508640663045491 -3.406634013558024e-05 0.9838160393955826 -0.044259451308801025 -0.008661513228588045 0.00607408881452831
142.0 -0.0077295217676808785 0.0054090766885475415 0.9857001884832806 -0.0397492744652607 0.0002165734873078421 -3.454923829068719e-05 0.0002165734873078421 -3.454923829068719e-05
 0.9857001884832801 -0.039749274465260685 -0.0077295217676808785 0.005409076688547546 0.0002165734873078421 -3.454923829068719e-05 0.0002165734873078421 -3.454923829068719e-05
 0.0002165734873078421 -3.454923829068719e-05 0.0002165734873078421 -3.454923829068719e-05 -0.008639204563555965 0.00610937562323296 0.9838389446880543 -0.04458720737627955
 0.0002165734873078421 -3.454923829068719e-05 0.0002165734873078421 -3.454923829068719e-05 0.9838389446880543 -0.04458720737627955 -0.008639204563555965 0.00610937562323296
143.0 -0.007709683096867645 0.0054398886251641855 0.9857222332782404 -0.04004216831604161 0.00021805975709740747 -3.503549175692808e-05 0.00021805975709740747 -3.503549175692808e-05
 0.98572223327824 -0.040042168316041606 -0.007709683096867645 0.005439888625164189 0.00021805975709740747 -3.503549175692808e-05 0.00021805975709740747 -3.503549175692808e-05
 0.00021805975709740747 -3.503549175692808e-05 0.00021805975709740747 -3.503549175692808e-05 -0.00861658573543337 0.006144154365373026 0.9838619743926658 -0.04491586944575786
 0.00021805975709740747 -3.503549175692808e-05 0.00021805975709740747 -3.503549175692808e-05 0.9838619743926658 -0.04491586944575786 -0.00861658573543337 0.006144154365373027
144.0 -0.007689728573961155 0.005470508448281795 0.9857443429922501 -0.04033540559757242 0.00021954521036918222 -3.552509932478952e-05 0.00021954521036918222 -3.552509932478952e-05
 0.9857443429922499 -0.04033540559757241 -0.007689728573961155 0.005470508448281798 0.00021954521036918222 -3.552509932478952e-05 0.00021954521036918222 -3.552509932478952e-05
 0.00021954521036918222 -3.552509932478952e-05 0.00021954521036918222 -3.552509932478952e-05 -0.008593833980271985 0.006178715364699698 0.9838850574167656 -0.045244919801807504
 0.00021954521036918222 -3.552509932478952e-05 0.00021954521036918222 -3.552509932478952e-05 0.9838850574167657 -0.045244919801807504 -0.008593833980271985 0.0061787153646997
145.0 -0.007669774051054665 0.005501128271399404 0.9857664527062598 -0.04062864287910322 0.00022102984149488834 -3.601805977637865e-05 0.00022102984149488834 -3.601805977637865e-05
 0.9857664527062597 -0.04062864287910322 -0.007669774051054665 0.0055011282713994065 0.00022102984149488834 -3.601805977637865e-05 0.00022102984149488834 -3.601805977637865e-05
 0.00022102984149488834 -3.601805977637865e-05 0.00022102984149488834 -3.601805977637865e-05 -0.0085710822251106 0.00621327636402637 0.9839081404408654 -0.04557397015785714
 0.00022102984149488834 -3.601805977637865e-05 0.00022102984149488834 -3.601805977637865e-05 0.9839081404408655 -0.04557397015785714 -0.0085710822251106 0.006213276364026372
146.0 -0.007649819528148175 0.0055317480945170135 0.9857885624202697 -0.04092188016063403 0.00022251364484795048 -3.651437188542552e-05 0.00022251364484795048 -3.651437188542552e-05
 0.9857885624202696 -0.04092188016063403 -0.007649819528148175 0.005531748094517014 0.00022251364484795048 -3.651437188542552e-05 0.00022251364484795048 -3.651437188542552e-05
 0.00022251364484795048 -3.651437188542552e-05 0.00022251364484795048 -3.651437188542552e-05 -0.008548330469949215 0.006247837363353042 0.9839312234649653 -0.04590302051390679
 0.00022251364484795048 -3.651437188542552e-05 0.00022251364484795048 -3.651437188542552e-05 0.9839312234649653 -0.04590302051390679 -0.008548330469949215 0.006247837363353045
147.0 -0.007629865005241685 0.005562367917634623 0.9858106721342794 -0.04121511744216483 0.00022399661480350733 -3.701403441728527e-05 0.00022399661480350733 -3.701403441728527e-05
 0.9858106721342795 -0.041215117442164835 -0.007629865005241685 0.005562367917634623 0.00022399661480350733 -3.701403441728527e-05 0.00022399661480350733 -3.701403441728527e-05
 0.00022399661480350733 -3.701403441728527e-05 0.00022399661480350733 -3.701403441728527e-05 -0.008525578714787829 0.006282398362679713 0.9839543064890651 -0.04623207086995643
 0.00022399661480350733 -3.701403441728527e-05 0.00022399661480350733 -3.701403441728527e-05 0.9839543064890651 -0.04623207086995643 -0.008525578714787829 0.006282398362679718
148.0 -0.007609621305677805 0.005592469229674804 0.9858329172330658 -0.04150928247912231 0.0002254787457384237 -3.751704612894052e-05 0.0002254787457384237 -3.751704612894052e-05
 0.9858329172330659 -0.04150928247912232 -0.007609621305677805 0.005592469229674804 0.0002254787457384237 -3.751704612894052e-05 0.0002254787457384237 -3.751704612894052e-05
 0.0002254787457384237 -3.751704612894052e-05 0.0002254787457384237 -3.751704612894052e-05 -0.00850249486731953 0.006316371619646624 0.9839774888525509 -0.04656217005878011
 0.0002254787457384237 -3.751704612894052e-05 0.0002254787457384237 -3.751704612894052e-05 0.983977488852551 -0.04656217005878012 -0.00850249486731953 0.006316371619646629
149.0 -0.007589305311949577 0.005622440913945627 0.9858551961780462 -0.04180367945493646 0.0002269600320313018 -3.802340576900362e-05 0.0002269600320313018 -3.802340576900362e-05
 0.9858551961780463 -0.04180367945493647 -0.007589305311949577 0.005622440913945626 0.0002269600320313018 -3.802340576900362e-05 0.0002269600320313018 -3.802340576900362e-05
 0.0002269600320313018 -3.802340576900362e-05 0.0002269600320313018 -3.802340576900362e-05 -0.008479327996774502 0.006350197941023594 0.9840006960508831 -0.04689253145579731
 0.0002269600320313018 -3.802340576900362e-05 0.0002269600320313018 -3.802340576900362e-05 0.9840006960508833 -0.04689253145579732 -0.008479327996774502 0.006350197941023599
150.0 -0.007568989318221348 0.00565241259821645 0.9858774751230267 -0.042098076430750614 0.00022844046806249317 -3.8533112077719005e-05 0.00022844046806249317 -3.8533112077719005e-05
 0.9858774751230268 -0.04209807643075062 -0.007568989318221348 0.0056524125982164485 0.00022844046806249317 -3.8533112077719005e-05 0.00022844046806249317 -3.8533112077719005e-05
 0.00022844046806249317 -3.8533112077719005e-05 0.00022844046806249317 -3.8533112077719005e-05 -0.008456161126229473 0.006384024262400564 0.9840239032492153 -0.0472228928528145
 0.00022844046806249317 -3.8533112077719005e-05 0.00022844046806249317 -3.8533112077719005e-05 0.9840239032492155 -0.047222892852814516 -0.008456161126229473 0.006384024262400569
151.0 -0.0075486733244931195 0.0056823842824872735 0.9858997540680072 -0.04239247340656476 0.00022992004821411024 -3.9046163786965576e-05 0.00022992004821411024 -3.9046163786965576e-05
 0.9858997540680073 -0.04239247340656477 -0.0075486733244931195 0.005682384282487272 0.00022992004821411024 -3.9046163786965576e-05 0.00022992004821411024 -3.9046163786965576e-05
 0.00022992004821411024 -3.9046163786965576e-05 0.00022992004821411024 -3.9046163786965576e-05 -0.008432994255684445 0.006417850583777535 0.9840471104475476 -0.0475532542498317
 0.00022992004821411024 -3.9046163786965576e-05 0.00022992004821411024 -3.9046163786965576e-05 0.9840471104475478 -0.047553254249831714 -0.008432994255684445 0.0064178505837775394
152.0 -0.007528357330764891 0.005712355966758097 0.9859220330129878 -0.042686870382378915 0.0002313987668700379 -3.956255962025898e-05 0.0002313987668700379 -3.956255962025898e-05
 0.9859220330129879 -0.04268687038237892 -0.007528357330764891 0.005712355966758094 0.0002313987668700379 -3.956255962025898e-05 0.0002313987668700379 -3.956255962025898e-05
 0.0002313987668700379 -3.956255962025898e-05 0.0002313987668700379 -3.956255962025898e-05 -0.008409827385139417 0.006451676905154505 0.9840703176458798 -0.04788361564684889
 0.0002313987668700379 -3.956255962025898e-05 0.0002313987668700379 -3.956255962025898e-05 0.9840703176458802 -0.04788361564684891 -0.008409827385139417 0.0064516769051545094
153.0 -0.007507737640360769 0.0057417393345609614 0.9859444211135914 -0.04298231842289099 0.00023287661841594557 -4.008229829275407e-05 0.00023287661841594557 -4.008229829275407e-05
 0.9859444211135915 -0.042982318422891 -0.007507737640360769 0.00574173933456096 0.00023287661841594557 -4.008229829275407e-05 0.00023287661841594557 -4.008229829275407e-05
 0.00023287661841594557 -4.008229829275407e-05 0.00023287661841594557 -4.008229829275407e-05 -0.008386311411408876 0.006484836270501032 0.9840935876288541 -0.048215165193287855
 0.00023287661841594557 -4.008229829275407e-05 0.00023287661841594557 -4.008229829275407e-05 0.9840935876288545 -0.048215165193287876 -0.008386311411408876 0.006484836270501035
154.0 -0.007487084205881549 0.0057710573338673864 0.9859668213425976 -0.04327788324836951 0.0002343535972392982 -4.060537851124726e-05 0.0002343535972392982 -4.060537851124726e-05
 0.9859668213425977 -0.04327788324836951 -0.007487084205881549 0.005771057333867385 0.0002343535972392982 -4.060537851124726e-05 0.0002343535972392982 -4.060537851124726e-05
 0.0002343535972392982 -4.060537851124726e-05 0.0002343535972392982 -4.060537851124726e-05 -0.0083627566484355 0.006517921529621953 0.9841168645878998 -0.04854684675632924
 0.0002343535972392982 -4.060537851124726e-05 0.0002343535972392982 -4.060537851124726e-05 0.9841168645879 -0.04854684675632926 -0.0083627566484355 0.006517921529621954
155.0 -0.007466430771402329 0.005800375333173811 0.9859892215716038 -0.04357344807384802 0.0002358296977293685 -4.113179897417894e-05 0.0002358296977293685 -4.113179897417894e-05
 0.9859892215716038 -0.04357344807384802 -0.007466430771402329 0.00580037533317381 0.0002358296977293685 -4.113179897417894e-05 0.0002358296977293685 -4.113179897417894e-05
 0.0002358296977293685 -4.113179897417894e-05 0.0002358296977293685 -4.113179897417894e-05 -0.008339201885462125 0.0065510067887428755 0.9841401415469454 -0.048878528319370625
 0.0002358296977293685 -4.113179897417894e-05 0.0002358296977293685 -4.113179897417894e-05 0.9841401415469457 -0.04887852831937064 -0.008339201885462126 0.006551006788742875
156.0 -0.007445777336923108 0.0058296933324802356 0.9860116218006101 -0.043869012899326536 0.0002373049142772484 -4.16615583716359e-05 0.0002373049142772484 -4.16615583716359e-05
 0.9860116218006101 -0.043869012899326536 -0.007445777336923108 0.0058296933324802356 0.0002373049142772484 -4.16615583716359e-05 0.0002373049142772484 -4.16615583716359e-05
 0.0002373049142772484 -4.16615583716359e-05 0.0002373049142772484 -4.16615583716359e-05 -0.008315647122488749 0.006584092047863797 0.9841634185059911 -0.049210209882412
 0.0002373049142772484 -4.16615583716359e-05 0.0002373049142772484 -4.16615583716359e-05 0.9841634185059913 -0.04921020988241202 -0.00831564712248875 0.006584092047863794
157.0 -0.0074251239024438875 0.0058590113317866606 0.9860340220296163 -0.044164577724805046 0.00023877924127586054 -4.2194655385353785e-05 0.00023877924127586054 -4.2194655385353785e-05
 0.9860340220296163 -0.044164577724805046 -0.0074251239024438875 0.0058590113317866606 0.00023877924127586054 -4.2194655385353785e-05 0.00023877924127586054 -4.2194655385353785e-05
 0.00023877924127586054 -4.2194655385353785e-05 0.00023877924127586054 -4.2194655385353785e-05 -0.008292092359515373 0.006617177306984719 0.9841866954650368 -0.04954189144545339
 0.00023877924127586054 -4.2194655385353785e-05 0.00023877924127586054 -4.2194655385353785e-05 0.984186695465037 -0.0495418914454534 -0.008292092359515375 0.006617177306984715
158.0 -0.007404157622926127 0.005887670984152439 0.9860564961641122 -0.04446131968652349 0.0002402526731199702 -4.273108868871952e-05 0.0002402526731199702 -4.273108868871952e-05
 0.9860564961641122 -0.04446131968652349 -0.007404157622926127 0.005887670984152439 0.0002402526731199702 -4.273108868871952e-05 0.0002402526731199702 -4.273108868871952e-05
 0.0002402526731199702 -4.273108868871952e-05 0.0002402526731199702 -4.273108868871952e-05 -0.008268177566282259 0.006649516129084526 0.9842099883868776 -0.04987490354110397
 0.0002402526731199702 -4.273108868871952e-05 0.0002402526731199702 -4.273108868871952e-05 0.9842099883868778 -0.04987490354110398 -0.00826817756628226 0.006649516129084523
159.0 -0.007383191343408366 0.0059163306365182175 0.9860789702986081 -0.044758061648241934 0.00024172520420619666 -4.327085694677381e-05 0.00024172520420619666 -4.327085694677381e-05
 0.986078970298608 -0.044758061648241934 -0.007383191343408366 0.005916330636518217 0.00024172520420619666 -4.327085694677381e-05 0.00024172520420619666 -4.327085694677381e-05
 0.00024172520420619666 -4.327085694677381e-05 0.00024172520420619666 -4.327085694677381e-05 -0.008244262773049144 0.0066818549511843345 0.9842332813087182 -0.05020791563675455
 0.00024172520420619666 -4.327085694677381e-05 0.00024172520420619666 -4.327085694677381e-05 0.9842332813087185 -0.05020791563675456 -0.008244262773049146 0.006681854951184332
160.0 -0.0073622250638906055 0.0059449902888839955 0.986101444433104 -0.045054803609960385 0.00024319682893302513 -4.381395881621364e-05 0.00024319682893302513 -4.381395881621364e-05
 0.9861014444331039 -0.04505480360996038 -0.0073622250638906055 0.005944990288883995 0.00024319682893302513 -4.381395881621364e-05 0.00024319682893302513 -4.381395881621364e-05
 0.00024319682893302513 -4.381395881621364e-05 0.00024319682893302513 -4.381395881621364e-05 -0.00822034797981603 0.006714193773284142 0.984256574230559 -0.050540927732405136
 0.00024319682893302513 -4.381395881621364e-05 0.00024319682893302513 -4.381395881621364e-05 0.9842565742305592 -0.050540927732405136 -0.00822034797981603 0.00671419377328414
161.0 -0.007341258784372844 0.0059736499412497744 0.9861239185676 -0.04535154557167883 0.000244667541700818 -4.4360392945394704e-05 0.000244667541700818 -4.4360392945394704e-05
 0.9861239185675996 -0.04535154557167882 -0.007341258784372844 0.005973649941249773 0.000244667541700818 -4.4360392945394704e-05 0.000244667541700818 -4.4360392945394704e-05
 0.000244667541700818 -4.4360392945394704e-05 0.000244667541700818 -4.4360392945394704e-05 -0.008196433186582915 0.006746532595383949 0.9842798671523998 -0.050873939828055714
 0.000244667541700818 -4.4360392945394704e-05 0.000244667541700818 -4.4360392945394704e-05 0.9842798671524 -0.05087393982805572 -0.008196433186582915 0.006746532595383948
162.0 -0.007320263545548798 0.006002243353071081 0.986146396199593 -0.04564840612780764 0.000246137336911827 -4.4910157974334015e-05 0.000246137336911827 -4.4910157974334015e-05
 0.9861463961995927 -0.04564840612780764 -0.007320263545548798 0.006002243353071079 0.000246137336911827 -4.4910157974334015e-05 0.000246137336911827 -4.4910157974334015e-05
 0.000246137336911827 -4.4910157974334015e-05 0.000246137336911827 -4.4910157974334015e-05 -0.008172485027335225 0.0067787963051291825 0.9843031572369338 -0.05120708596223353
 0.000246137336911827 -4.4910157974334015e-05 0.000246137336911827 -4.4910157974334015e-05 0.9843031572369341 -0.05120708596223353 -0.008172485027335225 0.0067787963051291825
163.0 -0.007299007672968174 0.0060302405999921455 0.9861689053090599 -0.04594633403362979 0.00024760620897020425 -4.5463252534712395e-05 0.00024760620897020425 -4.5463252534712395e-05
 0.9861689053090597 -0.04594633403362979 -0.007299007672968174 0.006030240599992145 0.00024760620897020425 -4.5463252534712395e-05 0.00024760620897020425 -4.5463252534712395e-05
 0.00024760620897020425 -4.5463252534712395e-05 0.00024760620897020425 -4.5463252534712395e-05 -0.008148236573956342 0.006810384003683246 0.9843264217857084 -0.05154143844315638
 0.00024760620897020425 -4.5463252534712395e-05 0.00024760620897020425 -4.5463252534712395e-05 0.9843264217857085 -0.051541438443156375 -0.008148236573956342 0.006810384003683246
164.0 -0.00727775180038755 0.00605823784691321 0.9861914144185269 -0.04624426193945194 0.0002490741522820144 -4.601967524987703e-05 0.0002490741522820144 -4.601967524987703e-05
 0.9861914144185268 -0.04624426193945194 -0.00727775180038755 0.006058237846913211 0.0002490741522820144 -4.601967524987703e-05 0.0002490741522820144 -4.601967524987703e-05
 0.0002490741522820144 -4.601967524987703e-05 0.0002490741522820144 -4.601967524987703e-05 -0.00812398812057746 0.006841971702237309 0.9843496863344828 -0.051875790924079235
 0.0002490741522820144 -4.601967524987703e-05 0.0002490741522820144 -4.601967524987703e-05 0.9843496863344829 -0.05187579092407923 -0.00812398812057746 0.006841971702237309
165.0 -0.007256495927806928 0.006086235093834273 0.9862139235279938 -0.04654218984527409 0.00025054116125524577 -4.6579424734844e-05 0.00025054116125524577 -4.6579424734844e-05
 0.9862139235279939 -0.04654218984527409 -0.007256495927806927 0.006086235093834276 0.00025054116125524577 -4.6579424734844e-05 0.00025054116125524577 -4.6579424734844e-05
 0.00025054116125524577 -4.6579424734844e-05 0.00025054116125524577 -4.6579424734844e-05 -0.008099739667198578 0.006873559400791372 0.9843729508832574 -0.05221014340500209
 0.00025054116125524577 -4.6579424734844e-05 0.00025054116125524577 -4.6579424734844e-05 0.9843729508832573 -0.05221014340500208 -0.008099739667198578 0.006873559400791372
166.0 -0.007235240055226304 0.006114232340755338 0.9862364326374607 -0.04684011775109624 0.00025200723029982256 -4.714249959630096e-05 0.00025200723029982256 -4.714249959630096e-05
 0.986236432637461 -0.04684011775109625 -0.007235240055226303 0.006114232340755341 0.00025200723029982256 -4.714249959630096e-05 0.00025200723029982256 -4.714249959630096e-05
 0.00025200723029982256 -4.714249959630096e-05 0.00025200723029982256 -4.714249959630096e-05 -0.008075491213819697 0.006905147099345435 0.9843962154320318 -0.05254449588592494
 0.00025200723029982256 -4.714249959630096e-05 0.00025200723029982256 -4.714249959630096e-05 0.9843962154320317 -0.05254449588592493 -0.008075491213819697 0.006905147099345435
167.0 -0.007213931168981305 0.006142096552449923 0.986258938389826 -0.04713828375126343 0.00025347235382761584 -4.7708898432609604e-05 0.00025347235382761584 -4.7708898432609604e-05
 0.9862589383898264 -0.047138283751263436 -0.0072139311689813045 0.0061420965524499275 0.00025347235382761584 -4.7708898432609604e-05 0.00025347235382761584 -4.7708898432609604e-05
 0.00025347235382761584 -4.7708898432609604e-05 0.00025347235382761584 -4.7708898432609604e-05 -0.008051181586261162 0.006936583926129893 0.9844194625634347 -0.05287911743194459
 0.00025347235382761584 -4.7708898432609604e-05 0.00025347235382761584 -4.7708898432609604e-05 0.9844194625634345 -0.052879117431944574 -0.008051181586261162 0.006936583926129893
168.0 -0.007192410228078803 0.006169428623238595 0.986281430713785 -0.04743740212881078 0.00025493652625245544 -4.8278619833808385e-05 0.00025493652625245544 -4.8278619833808385e-05
 0.9862814307137853 -0.047437402128810785 -0.007192410228078803 0.006169428623238597 0.00025493652625245544 -4.8278619833808385e-05 0.00025493652625245544 -4.8278619833808385e-05
 0.00025493652625245544 -4.8278619833808385e-05 0.00025493652625245544 -4.8278619833808385e-05 -0.00802662726198402 0.006967417265835928 0.9844426400253513 -0.05321481523835139
 0.00025493652625245544 -4.8278619833808385e-05 0.00025493652625245544 -4.8278619833808385e-05 0.9844426400253511 -0.05321481523835138 -0.00802662726198402 0.006967417265835928
169.0 -0.007170889287176302 0.006196760694027266 0.986303923037744 -0.04773652050635813 0.0002563997419901418 -4.885166238161507e-05 0.0002563997419901418 -4.885166238161507e-05
 0.9863039230377442 -0.04773652050635813 -0.007170889287176302 0.006196760694027267 0.0002563997419901418 -4.885166238161507e-05 0.0002563997419901418 -4.885166238161507e-05
 0.0002563997419901418 -4.885166238161507e-05 0.0002563997419901418 -4.885166238161507e-05 -0.008002072937706876 0.006998250605541962 0.9844658174872678 -0.0535505130447582
 0.0002563997419901418 -4.885166238161507e-05 0.0002563997419901418 -4.885166238161507e-05 0.9844658174872677 -0.05355051304475819 -0.008002072937706876 0.006998250605541962
170.0 -0.0071493683462738 0.006224092764815937 0.986326415361703 -0.048035638883905475 0.0002578619954584572 -4.942802464942945e-05 0.0002578619954584572 -4.942802464942945e-05
 0.9863264153617031 -0.048035638883905475 -0.0071493683462738 0.006224092764815938 0.0002578619954584572 -4.942802464942945e-05 0.0002578619954584572 -4.942802464942945e-05
 0.0002578619954584572 -4.942802464942945e-05 0.0002578619954584572 -4.942802464942945e-05 -0.007977518613429732 0.007029083945247997 0.9844889949491844 -0.053886210851165
 0.0002578619954584572 -4.942802464942945e-05 0.0002578619954584572 -4.942802464942945e-05 0.9844889949491843 -0.053886210851164996 -0.007977518613429732 0.007029083945247997
171.0 -0.007127847405371299 0.006251424835604608 0.986348907685662 -0.04833475726145282 0.0002593232810771775 -5.000770520233594e-05 0.0002593232810771775 -5.000770520233594e-05
 0.986348907685662 -0.048334757261452824 -0.007127847405371299 0.006251424835604607 0.0002593232810771775 -5.000770520233594e-05 0.0002593232810771775 -5.000770520233594e-05
 0.0002593232810771775 -5.000770520233594e-05 0.0002593232810771775 -5.000770520233594e-05 -0.007952964289152589 0.0070599172849540315 0.9845121724111009 -0.05422190865757181
 0.0002593232810771775 -5.000770520233594e-05 0.0002593232810771775 -5.000770520233594e-05 0.9845121724111009 -0.0542219086575718 -0.007952964289152589 0.0070599172849540315
172.0 -0.007106253884960754 0.0062785567332052025 0.9863713816767996 -0.048634232854150625 0.0002607835932680837 -5.059070259710627e-05 0.0002607835932680837 -5.059070259710627e-05
 0.9863713816767996 -0.048634232854150625 -0.007106253884960754 0.006278556733205201 0.0002607835932680837 -5.059070259710627e-05 0.0002607835932680837 -5.059070259710627e-05
 0.0002607835932680837 -5.059070259710627e-05 0.0002607835932680837 -5.059070259710627e-05 -0.007928326077997202 0.007090523585015553 0.9845353086400556 -0.05455801010689695
 0.0002607835932680837 -5.059070259710627e-05 0.0002607835932680837 -5.059070259710627e-05 0.9845353086400556 -0.05455801010689695 -0.007928326077997202 0.007090523585015553
173.0 -0.007084491012364776 0.006305221560033616 0.9863938128913544 -0.04893454194886616 0.0002622429264549737 -5.1177015382202166e-05 0.0002622429264549737 -5.1177015382202166e-05
 0.9863938128913543 -0.04893454194886615 -0.007084491012364776 0.006305221560033614 0.0002622429264549737 -5.1177015382202166e-05 0.0002622429264549737 -5.1177015382202166e-05
 0.0002622429264549737 -5.1177015382202166e-05 0.0002622429264549737 -5.1177015382202166e-05 -0.007903492130792581 0.007120600125906544 0.9845583486587658 -0.05489505338969819
 0.0002622429264549737 -5.1177015382202166e-05 0.0002622429264549737 -5.1177015382202166e-05 0.9845583486587659 -0.05489505338969819 -0.007903492130792581 0.007120600125906543
174.0 -0.007062728139768797 0.0063318863868620295 0.9864162441059091 -0.04923485104358169 0.00026370127506367374 -5.176664209777812e-05 0.00026370127506367374 -5.176664209777812e-05
 0.986416244105909 -0.04923485104358168 -0.007062728139768797 0.006331886386862028 0.00026370127506367374 -5.176664209777812e-05 0.00026370127506367374 -5.176664209777812e-05
 0.00026370127506367374 -5.176664209777812e-05 0.00026370127506367374 -5.176664209777812e-05 -0.007878658183587961 0.007150676666797535 0.9845813886774761 -0.05523209667249943
 0.00026370127506367374 -5.176664209777812e-05 0.00026370127506367374 -5.176664209777812e-05 0.9845813886774761 -0.05523209667249944 -0.007878658183587961 0.007150676666797534
175.0 -0.007040965267172819 0.006358551213690443 0.9864386753204639 -0.04953516013829722 0.00026515863352204996 -5.2359581275684004e-05 0.00026515863352204996 -5.2359581275684004e-05
 0.9864386753204638 -0.04953516013829721 -0.007040965267172819 0.006358551213690441 0.00026515863352204996 -5.2359581275684004e-05 0.00026515863352204996 -5.2359581275684004e-05
 0.00026515863352204996 -5.2359581275684004e-05 0.00026515863352204996 -5.2359581275684004e-05 -0.00785382423638334 0.007180753207688526 0.9846044286961865 -0.055569139955300675
 0.00026515863352204996 -5.2359581275684004e-05 0.00026515863352204996 -5.2359581275684004e-05 0.9846044286961865 -0.05556913995530068 -0.00785382423638334 0.007180753207688524
176.0 -0.00701920239457684 0.006385216040518857 0.9864611065350187 -0.049835469233012755 0.00026661499626001993 -5.2955831439467876e-05 0.00026661499626001993 -5.2955831439467876e-05
 0.9864611065350185 -0.04983546923301274 -0.00701920239457684 0.006385216040518855 0.00026661499626001993 -5.2955831439467876e-05 0.00026661499626001993 -5.2955831439467876e-05
 0.00026661499626001993 -5.2955831439467876e-05 0.00026661499626001993 -5.2955831439467876e-05 -0.00782899028917872 0.007210829748579517 0.9846274687148967 -0.055906183238101925
 0.00026661499626001993 -5.2955831439467876e-05 0.00026661499626001993 -5.2955831439467876e-05 0.9846274687148968 -0.05590618323810193 -0.00782899028917872 0.0072108297485795145
177.0 -0.00699735181874525 0.006411613835378654 0.9864834972994478 -0.05013625481596715 0.00026807035770956474 -5.355539110437873e-05 0.00026807035770956474 -5.355539110437873e-05
 0.9864834972994476 -0.050136254815967146 -0.00699735181874525 0.006411613835378652 0.00026807035770956474 -5.355539110437873e-05 0.00026807035770956474 -5.355539110437873e-05
 0.00026807035770956474 -5.355539110437873e-05 0.00026807035770956474 -5.355539110437873e-05 -0.007804054784402206 0.007240603377074719 0.9846504355417631 -0.056243764887681125
 0.00026807035770956474 -5.355539110437873e-05 0.00026807035770956474 -5.355539110437873e-05 0.9846504355417632 -0.05624376488768113 -0.007804054784402206 0.007240603377074716
178.0 -0.006975369688060241 0.0064376110822855276 0.9865058273886885 -0.05043775513127986 0.0002695247123047399 -5.415825877736926e-05 0.0002695247123047399 -5.415825877736926e-05
 0.9865058273886884 -0.050437755131279856 -0.006975369688060241 0.006437611082285525 0.0002695247123047399 -5.415825877736926e-05 0.0002695247123047399 -5.415825877736926e-05
 0.0002695247123047399 -5.415825877736926e-05 0.0002695247123047399 -5.415825877736926e-05 -0.00777896694326785 0.007269922636976236 0.9846732925808637 -0.05658215408742726
 0.0002695247123047399 -5.415825877736926e-05 0.0002695247123047399 -5.415825877736926e-05 0.9846732925808639 -0.056582154087427276 -0.00777896694326785 0.007269922636976235
179.0 -0.006953387557375232 0.006463608329192401 0.9865281574779292 -0.05073925544659257 0.00027097805448168707 -5.476443295709859e-05 0.00027097805448168707 -5.476443295709859e-05
 0.9865281574779292 -0.050739255446592565 -0.006953387557375232 0.006463608329192398 0.00027097805448168707 -5.476443295709859e-05 0.00027097805448168707 -5.476443295709859e-05
 0.00027097805448168707 -5.476443295709859e-05 0.00027097805448168707 -5.476443295709859e-05 -0.007753879102133494 0.007299241896877754 0.9846961496199642 -0.0569205432871734
 0.00027097805448168707 -5.476443295709859e-05 0.00027097805448168707 -5.476443295709859e-05 0.9846961496199644 -0.056920543287173414 -0.007753879102133494 0.007299241896877753
180.0 -0.006931405426690223 0.006489605576099273 0.9865504875671699 -0.05104075576190528 0.00027243037867864605 -5.5373912133935135e-05 0.00027243037867864605 -5.5373912133935135e-05
 0.9865504875671699 -0.05104075576190528 -0.006931405426690223 0.0064896055760992714 0.00027243037867864605 -5.5373912133935135e-05 0.00027243037867864605 -5.5373912133935135e-05
 0.00027243037867864605 -5.5373912133935135e-05 0.00027243037867864605 -5.5373912133935135e-05 -0.007728791260999139 0.007328561156779272 0.9847190066590649 -0.05725893248691954
 0.00027243037867864605 -5.5373912133935135e-05 0.00027243037867864605 -5.5373912133935135e-05 0.9847190066590651 -0.05725893248691955 -0.007728791260999139 0.007328561156779272
181.0 -0.006909423296005214 0.006515602823006146 0.9865728176564106 -0.05134225607721799 0.0002738816793359658 -5.5986694789959394e-05 0.0002738816793359658 -5.5986694789959394e-05
 0.9865728176564107 -0.05134225607721799 -0.006909423296005214 0.006515602823006145 0.0002738816793359658 -5.5986694789959394e-05 0.0002738816793359658 -5.5986694789959394e-05
 0.0002738816793359658 -5.5986694789959394e-05 0.0002738816793359658 -5.5986694789959394e-05 -0.007703703419864783 0.0073578804166807895 0.9847418636981654 -0.057597321686665676
 0.0002738816793359658 -5.5986694789959394e-05 0.0002738816793359658 -5.5986694789959394e-05 0.9847418636981657 -0.05759732168666569 -0.007703703419864783 0.00735788041668079
182.0 -0.006887343309360479 0.006541266036846983 0.9865950715495234 -0.051644354204412296 0.00027533195089611654 -5.66027793989668e-05 0.00027533195089611654 -5.66027793989668e-05
 0.9865950715495236 -0.0516443542044123 -0.00688734330936048 0.006541266036846982 0.00027533195089611654 -5.66027793989668e-05 0.00027533195089611654 -5.66027793989668e-05
 0.00027533195089611654 -5.66027793989668e-05 0.00027533195089611654 -5.66027793989668e-05 -0.007678501982670317 0.007386820718022042 0.9847646001497686 -0.057936386196587066
 0.00027533195089611654 -5.66027793989668e-05 0.00027533195089611654 -5.66027793989668e-05 0.984764600149769 -0.057936386196587086 -0.007678501982670317 0.007386820718022043
183.0 -0.006865165466756018 0.006566595217621784 0.9866172492465085 -0.0519470501434882 0.00027678118780370074 -5.722216442647048e-05 0.00027678118780370074 -5.722216442647048e-05
 0.9866172492465087 -0.05194705014348821 -0.006865165466756019 0.006566595217621782 0.00027678118780370074 -5.722216442647048e-05 0.00027678118780370074 -5.722216442647048e-05
 0.00027678118780370074 -5.722216442647048e-05 0.00027678118780370074 -5.722216442647048e-05 -0.007653186949415743 0.007415382060803029 0.9847872160138745 -0.05827612601668372
 0.00027678118780370074 -5.722216442647048e-05 0.00027678118780370074 -5.722216442647048e-05 0.9847872160138749 -0.05827612601668374 -0.007653186949415743 0.00741538206080303
184.0 -0.006842987624151557 0.006591924398396585 0.9866394269434935 -0.05224974608256411 0.00027822938450546513 -5.784484832970424e-05 0.00027822938450546513 -5.784484832970424e-05
 0.9866394269434937 -0.052249746082564115 -0.006842987624151558 0.006591924398396584 0.00027822938450546513 -5.784484832970424e-05 0.00027822938450546513 -5.784484832970424e-05
 0.00027822938450546513 -5.784484832970424e-05 0.00027822938450546513 -5.784484832970424e-05 -0.007627871916161169 0.007443943403584017 0.9848098318779805 -0.05861586583678037
 0.00027822938450546513 -5.784484832970424e-05 0.00027822938450546513 -5.784484832970424e-05 0.9848098318779809 -0.05861586583678039 -0.007627871916161169 0.007443943403584017
185.0 -0.006820809781547096 0.0066172535791713845 0.9866616046404786 -0.052552442021640014 0.00027967653545031204 -5.8470829557625366e-05 0.00027967653545031204 -5.8470829557625366e-05
 0.9866616046404788 -0.05255244202164002 -0.006820809781547097 0.0066172535791713845 0.00027967653545031204 -5.8470829557625366e-05 0.00027967653545031204 -5.8470829557625366e-05
 0.00027967653545031204 -5.8470829557625366e-05 0.00027967653545031204 -5.8470829557625366e-05 -0.007602556882906595 0.007472504746365004 0.9848324477420864 -0.058955605656877026
 0.00027967653545031204 -5.8470829557625366e-05 0.00027967653545031204 -5.8470829557625366e-05 0.9848324477420868 -0.05895560565687705 -0.007602556882906595 0.007472504746365003
186.0 -0.006798631938942636 0.006642582759946185 0.9866837823374637 -0.05285513796071592 0.0002811226350893111 -5.91001065509175e-05 0.0002811226350893111 -5.91001065509175e-05
 0.9866837823374639 -0.05285513796071593 -0.006798631938942636 0.006642582759946185 0.0002811226350893111 -5.91001065509175e-05 0.0002811226350893111 -5.91001065509175e-05
 0.0002811226350893111 -5.91001065509175e-05 0.0002811226350893111 -5.91001065509175e-05 -0.00757724184965202 0.007501066089145992 0.9848550636061923 -0.059295345476973675
 0.0002811226350893111 -5.91001065509175e-05 0.0002811226350893111 -5.91001065509175e-05 0.9848550636061927 -0.059295345476973696 -0.00757724184965202 0.00750106608914599
187.0 -0.0067763499385817706 0.00666751114812533 0.98670584453569 -0.05315855073853201 0.00028256767787571027 -5.9732677741993566e-05 0.00028256767787571027 -5.9732677741993566e-05
 0.9867058445356902 -0.05315855073853202 -0.0067763499385817706 0.006667511148125329 0.00028256767787571027 -5.9732677741993566e-05 0.00028256767787571027 -5.9732677741993566e-05
 0.00028256767787571027 -5.9732677741993566e-05 0.00028256767787571027 -5.9732677741993566e-05 -0.00755180557082964 0.0075291726856927645 0.9848775073760632 -0.05963589495432825
 0.00028256767787571027 -5.9732677741993566e-05 0.00028256767787571027 -5.9732677741993566e-05 0.9848775073760634 -0.059635894954328264 -0.00755180557082964 0.007529172685692763
188.0 -0.006753998499716638 0.006692172341240703 0.9867278297347439 -0.053462441408841564 0.0002840116582649484 -6.036854155499876e-05 0.0002840116582649484 -6.036854155499876e-05
 0.9867278297347443 -0.05346244140884157 -0.006753998499716638 0.006692172341240702 0.0002840116582649484 -6.036854155499876e-05 0.0002840116582649484 -6.036854155499876e-05
 0.0002840116582649484 -6.036854155499876e-05 0.0002840116582649484 -6.036854155499876e-05 -0.00752628846162872 0.007556976118083394 0.9848998364164437 -0.059976984203188095
 0.0002840116582649484 -6.036854155499876e-05 0.0002840116582649484 -6.036854155499876e-05 0.984899836416444 -0.05997698420318811 -0.00752628846162872 0.007556976118083394
189.0 -0.006731647060851504 0.006716833534356076 0.9867498149337979 -0.053766332079151116 0.0002854545707146657 -6.100769640581337e-05 0.0002854545707146657 -6.100769640581337e-05
 0.9867498149337982 -0.05376633207915112 -0.006731647060851504 0.006716833534356075 0.0002854545707146657 -6.100769640581337e-05 0.0002854545707146657 -6.100769640581337e-05
 0.0002854545707146657 -6.100769640581337e-05 0.0002854545707146657 -6.100769640581337e-05 -0.007500771352427801 0.007584779550474024 0.9849221654568244 -0.06031807345204794
 0.0002854545707146657 -6.100769640581337e-05 0.0002854545707146657 -6.100769640581337e-05 0.9849221654568246 -0.06031807345204795 -0.007500771352427801 0.007584779550474025
190.0 -0.006709295621986371 0.006741494727471449 0.9867718001328518 -0.05407022274946067 0.0002868964096847159 -6.16501407020558e-05 0.0002868964096847159 -6.16501407020558e-05
 0.9867718001328522 -0.054070222749460675 -0.006709295621986371 0.006741494727471448 0.0002868964096847159 -6.16501407020558e-05 0.0002868964096847159 -6.16501407020558e-05
 0.0002868964096847159 -6.16501407020558e-05 0.0002868964096847159 -6.16501407020558e-05 -0.007475254243226882 0.007612582982864654 0.9849444944972051 -0.060659162700907786
 0.0002868964096847159 -6.16501407020558e-05 0.0002868964096847159 -6.16501407020558e-05 0.9849444944972052 -0.06065916270090779 -0.007475254243226882 0.007612582982864655
191.0 -0.006686944183121237 0.006766155920586822 0.9867937853319058 -0.05437411341977022 0.0002883371696371775 -6.22958728430855e-05 0.0002883371696371775 -6.22958728430855e-05
 0.9867937853319061 -0.05437411341977023 -0.006686944183121237 0.006766155920586821 0.0002883371696371775 -6.22958728430855e-05 0.0002883371696371775 -6.22958728430855e-05
 0.0002883371696371775 -6.22958728430855e-05 0.0002883371696371775 -6.22958728430855e-05 -0.007449737134025963 0.007640386415255283 0.9849668235375858 -0.06100025194976763
 0.0002883371696371775 -6.22958728430855e-05 0.0002883371696371775 -6.22958728430855e-05 0.9849668235375858 -0.06100025194976763 -0.007449737134025963 0.007640386415255286
192.0 -0.006664486769524988 0.0067903512130739405 0.9868156066092668 -0.054678835170438214 0.0002897768450363656 -6.294489122000605e-05 0.0002897768450363656 -6.294489122000605e-05
 0.986815606609267 -0.05467883517043822 -0.006664486769524988 0.006790351213073939 0.0002897768450363656 -6.294489122000605e-05 0.0002897768450363656 -6.294489122000605e-05
 0.0002897768450363656 -6.294489122000605e-05 0.0002897768450363656 -6.294489122000605e-05 -0.007424096217743791 0.007667661155813192 0.984988918643068 -0.061342279768106925
 0.0002897768450363656 -6.294489122000605e-05 0.0002897768450363656 -6.294489122000605e-05 0.984988918643068 -0.061342279768106925 -0.007424096217743791 0.007667661155813195
193.0 -0.006641983938186833 0.006814346833863235 0.9868373576344738 -0.05498391309840268 0.000291215430348843 -6.359719421566797e-05 0.000291215430348843 -6.359719421566797e-05
 0.986837357634474 -0.05498391309840268 -0.006641983938186833 0.006814346833863234 0.000291215430348843 -6.359719421566797e-05 0.000291215430348843 -6.359719421566797e-05
 0.000291215430348843 -6.359719421566797e-05 0.000291215430348843 -6.359719421566797e-05 -0.007398402241283938 0.007694709314157078 0.9850109134907366 -0.06168470983050884
 0.000291215430348843 -6.359719421566797e-05 0.000291215430348843 -6.359719421566797e-05 0.9850109134907366 -0.06168470983050884 -0.007398402241283937 0.007694709314157081
194.0 -0.006619481106848677 0.00683834245465253 0.9868591086596807 -0.05528899102636714 0.000292652920043432 -6.425278020467193e-05 0.000292652920043432 -6.425278020467193e-05
 0.9868591086596809 -0.05528899102636714 -0.006619481106848677 0.006838342454652529 0.000292652920043432 -6.425278020467193e-05 0.000292652920043432 -6.425278020467193e-05
 0.000292652920043432 -6.425278020467193e-05 0.000292652920043432 -6.425278020467193e-05 -0.007372708264824086 0.007721757472500964 0.9850329083384052 -0.06202713989291075
 0.000292652920043432 -6.425278020467193e-05 0.000292652920043432 -6.425278020467193e-05 0.9850329083384052 -0.06202713989291075 -0.007372708264824085 0.007721757472500966
195.0 -0.0065969782755105205 0.006862338075441824 0.9868808596848877 -0.0555940689543316 0.000294089308591226 -6.491164755337164e-05 0.000294089308591226 -6.491164755337164e-05
 0.9868808596848878 -0.0555940689543316 -0.0065969782755105205 0.006862338075441824 0.000294089308591226 -6.491164755337164e-05 0.000294089308591226 -6.491164755337164e-05
 0.000294089308591226 -6.491164755337164e-05 0.000294089308591226 -6.491164755337164e-05 -0.007347014288364233 0.0077488056308448496 0.9850549031860737 -0.06236956995531266
 0.000294089308591226 -6.491164755337164e-05 0.000294089308591226 -6.491164755337164e-05 0.9850549031860737 -0.06236956995531266 -0.0073470142883642325 0.007748805630844852
196.0 -0.0065744754441723645 0.0068863336962311185 0.9869026107100947 -0.055899146882296066 0.00029552459046560065 -6.557379461987701e-05 0.00029552459046560065 -6.557379461987701e-05
 0.9869026107100947 -0.055899146882296066 -0.0065744754441723645 0.0068863336962311185 0.00029552459046560065 -6.557379461987701e-05 0.00029552459046560065 -6.557379461987701e-05
 0.00029552459046560065 -6.557379461987701e-05 0.00029552459046560065 -6.557379461987701e-05 -0.007321320311904381 0.007775853789188736 0.9850768980337422 -0.06271200001771457
 0.00029552459046560065 -6.557379461987701e-05 0.00029552459046560065 -6.557379461987701e-05 0.9850768980337422 -0.06271200001771457 -0.007321320311904379 0.007775853789188738
197.0 -0.006551868126800127 0.006909798782825003 0.9869241412099391 -0.05620516968035298 0.00029695876014222575 -6.62392197540571e-05 0.00029695876014222575 -6.62392197540571e-05
 0.9869241412099391 -0.05620516968035298 -0.006551868126800127 0.006909798782825002 0.00029695876014222575 -6.62392197540571e-05 0.00029695876014222575 -6.62392197540571e-05
 0.00029695876014222575 -6.62392197540571e-05 0.00029695876014222575 -6.62392197540571e-05 -0.007295503739008569 0.007802299832539698 0.9850985877935782 -0.06305549698269704
 0.00029695876014222575 -6.62392197540571e-05 0.00029695876014222575 -6.62392197540571e-05 0.9850985877935782 -0.06305549698269704 -0.007295503739008567 0.0078022998325397
198.0 -0.006529234687919367 0.006933131235870035 0.9869456165784428 -0.05651142869593301 0.00029839181209907636 -6.690792129754325e-05 0.00029839181209907636 -6.690792129754325e-05
 0.9869456165784428 -0.05651142869593301 -0.006529234687919367 0.006933131235870033 0.00029839181209907636 -6.690792129754325e-05 0.00029839181209907636 -6.690792129754325e-05
 0.00029839181209907636 -6.690792129754325e-05 0.00029839181209907636 -6.690792129754325e-05 -0.007269656517003766 0.00782859534714243 0.985120201281456 -0.06339926067332464
 0.00029839181209907636 -6.690792129754325e-05 0.00029839181209907636 -6.690792129754325e-05 0.985120201281456 -0.06339926067332464 -0.0072696565170037655 0.007828595347142432
199.0 -0.006506601249038608 0.006956463688915066 0.9869670919469465 -0.056817687711513035 0.0002998237408164448 -6.757989758373222e-05 0.0002998237408164448 -6.757989758373222e-05
 0.9869670919469465 -0.056817687711513035 -0.006506601249038608 0.006956463688915063 0.0002998237408164448 -6.757989758373222e-05 0.0002998237408164448 -6.757989758373222e-05
 0.0002998237408164448 -6.757989758373222e-05 0.0002998237408164448 -6.757989758373222e-05 -0.007243809294998965 0.007854890861745161 0.9851418147693338 -0.06374302436395224
 0.0002998237408164448 -6.757989758373222e-05 0.0002998237408164448 -6.757989758373222e-05 0.9851418147693338 -0.06374302436395225 -0.007243809294998963 0.007854890861745163
200.0 -0.006483967810157849 0.006979796141960098 0.9869885673154503 -0.05712394672709306 0.0003012545407769516 -6.825514693778914e-05 0.0003012545407769516 -6.825514693778914e-05
 0.9869885673154503 -0.05712394672709306 -0.006483967810157849 0.006979796141960094 0.0003012545407769516 -6.825514693778914e-05 0.0003012545407769516 -6.825514693778914e-05
 0.0003012545407769516 -6.825514693778914e-05 0.0003012545407769516 -6.825514693778914e-05 -0.0072179620729941624 0.007881186376347892 0.9851634282572116 -0.06408678805457985
 0.0003012545407769516 -6.825514693778914e-05 0.0003012545407769516 -6.825514693778914e-05 0.9851634282572117 -0.06408678805457986 -0.007217962072994162 0.007881186376347894
201.0 -0.00646133437127709 0.007003128595005129 0.987010042683954 -0.05743020574267309 0.0003026842064655572 -6.893366767665088e-05 0.0003026842064655572 -6.893366767665088e-05
 0.987010042683954 -0.05743020574267309 -0.00646133437127709 0.007003128595005124 0.0003026842064655572 -6.893366767665088e-05 0.0003026842064655572 -6.893366767665088e-05
 0.0003026842064655572 -6.893366767665088e-05 0.0003026842064655572 -6.893366767665088e-05 -0.00719211485098936 0.007907481890950623 0.9851850417450894 -0.06443055174520745
 0.0003026842064655572 -6.893366767665088e-05 0.0003026842064655572 -6.893366767665088e-05 0.9851850417450895 -0.06443055174520747 -0.007192114850989359 0.007907481890950625
202.0 -0.006438602911159437 0.00702586644750786 0.9870312258956009 -0.057737525161862334 0.00030411273236957383 -6.961545810902893e-05 0.00030411273236957383 -6.961545810902893e-05
 0.9870312258956008 -0.057737525161862334 -0.006438602911159437 0.007025866447507856 0.00030411273236957383 -6.961545810902893e-05 0.00030411273236957383 -6.961545810902893e-05
 0.00030411273236957383 -6.961545810902893e-05 0.00030411273236957383 -6.961545810902893e-05 -0.007166151881646742 0.007933102506650348 0.9852062619790749 -0.06477551249097245
 0.00030411273236957383 -6.961545810902893e-05 0.00030411273236957383 -6.961545810902893e-05 0.985206261979075 -0.06477551249097246 -0.007166151881646741 0.00793310250665035
203.0 -0.006415860559793239 0.0070485382332836684 0.9870523766453748 -0.05804496240367483 0.0003055401129786763 -7.03005165354127e-05 0.0003055401129786763 -7.03005165354127e-05
 0.9870523766453747 -0.05804496240367483 -0.006415860559793239 0.007048538233283665 0.0003055401129786763 -7.03005165354127e-05 0.0003055401129786763 -7.03005165354127e-05
 0.0003055401129786763 -7.03005165354127e-05 0.0003055401129786763 -7.03005165354127e-05 -0.0071401760514888096 0.00795864813358307 0.9852274385181834 -0.06512060624286384
 0.0003055401129786763 -7.03005165354127e-05 0.0003055401129786763 -7.03005165354127e-05 0.9852274385181835 -0.06512060624286385 -0.007140176051488809 0.007958648133583072
204.0 -0.006393118208427043 0.007071210019059476 0.9870735273951488 -0.05835239964548733 0.0003069663427849139 -7.098884124807267e-05 0.0003069663427849139 -7.098884124807267e-05
 0.9870735273951485 -0.058352399645487316 -0.006393118208427043 0.007071210019059474 0.0003069663427849139 -7.098884124807267e-05 0.0003069663427849139 -7.098884124807267e-05
 0.0003069663427849139 -7.098884124807267e-05 0.0003069663427849139 -7.098884124807267e-05 -0.0071142002213308774 0.007984193760515793 0.985248615057292 -0.06546569999475522
 0.0003069663427849139 -7.098884124807267e-05 0.0003069663427849139 -7.098884124807267e-05 0.9852486150572921 -0.06546569999475524 -0.007114200221330877 0.007984193760515793
205.0 -0.006370375857060845 0.007093881804835284 0.9870946781449227 -0.058659836887299824 0.00030839141628272176 -7.168043053106354e-05 0.00030839141628272176 -7.168043053106354e-05
 0.9870946781449225 -0.05865983688729981 -0.006370375857060845 0.007093881804835283 0.00030839141628272176 -7.168043053106354e-05 0.00030839141628272176 -7.168043053106354e-05
 0.00030839141628272176 -7.168043053106354e-05 0.00030839141628272176 -7.168043053106354e-05 -0.007088224391172945 0.008009739387448516 0.9852697915964005 -0.0658107937466466
 0.00030839141628272176 -7.168043053106354e-05 0.00030839141628272176 -7.168043053106354e-05 0.9852697915964006 -0.06581079374664661 -0.007088224391172945 0.008009739387448516
206.0 -0.006347633505694649 0.0071165535906110924 0.9871158288946966 -0.05896727412911232 0.00030981532796893246 -7.237528266022747e-05 0.00030981532796893246 -7.237528266022747e-05
 0.9871158288946963 -0.058967274129112304 -0.006347633505694649 0.0071165535906110924 0.00030981532796893246 -7.237528266022747e-05 0.00030981532796893246 -7.237528266022747e-05
 0.00030981532796893246 -7.237528266022747e-05 0.00030981532796893246 -7.237528266022747e-05 -0.007062248561015013 0.008035285014381239 0.9852909681355091 -0.06615588749853799
 0.00030981532796893246 -7.237528266022747e-05 0.00030981532796893246 -7.237528266022747e-05 0.9852909681355092 -0.066155887498538 -0.007062248561015013 0.008035285014381239
207.0 -0.006324802305279338 0.0071385687790797795 0.987136624465392 -0.05927587911425345 0.00031123807234278734 -7.307339590319728e-05 0.00031123807234278734 -7.307339590319728e-05
 0.9871366244653919 -0.059275879114253444 -0.006324802305279337 0.00713856877907978 0.00031123807234278734 -7.307339590319728e-05 0.00031123807234278734 -7.307339590319728e-05
 0.00031123807234278734 -7.307339590319728e-05 0.00031123807234278734 -7.307339590319728e-05 -0.007036166945904734 0.008060085283842548 0.9853116728371604 -0.0665022993101006
 0.00031123807234278734 -7.307339590319728e-05 0.00031123807234278734 -7.307339590319728e-05 0.9853116728371604 -0.06650229931010061 -0.007036166945904734 0.008060085283842548
208.0 -0.006301971104864027 0.007160583967548467 0.9871574200360874 -0.05958448409939458 0.00031265964390594805 -7.377476851939966e-05 0.00031265964390594805 -7.377476851939966e-05
 0.9871574200360873 -0.059584484099394576 -0.006301971104864027 0.007160583967548469 0.00031265964390594805 -7.377476851939966e-05 0.00031265964390594805 -7.377476851939966e-05
 0.00031265964390594805 -7.377476851939966e-05 0.00031265964390594805 -7.377476851939966e-05 -0.007010085330794455 0.00808488555330386 0.9853323775388116 -0.06684871112166321
 0.00031265964390594805 -7.377476851939966e-05 0.00031265964390594805 -7.377476851939966e-05 0.9853323775388115 -0.06684871112166323 -0.007010085330794455 0.008084885553303858
209.0 -0.006279139904448717 0.0071825991560171545 0.9871782156067828 -0.05989308908453571 0.0003140800371625076 -7.44793987600584e-05 0.0003140800371625076 -7.44793987600584e-05
 0.9871782156067829 -0.059893089084535715 -0.006279139904448716 0.007182599156017157 0.0003140800371625076 -7.44793987600584e-05 0.0003140800371625076 -7.44793987600584e-05
 0.0003140800371625076 -7.44793987600584e-05 0.0003140800371625076 -7.44793987600584e-05 -0.006984003715684176 0.008109685822765169 0.9853530822404629 -0.06719512293322584
 0.0003140800371625076 -7.44793987600584e-05 0.0003140800371625076 -7.44793987600584e-05 0.9853530822404628 -0.06719512293322583 -0.006984003715684176 0.008109685822765167
210.0 -0.006256308704033406 0.007204614344485842 0.9871990111774782 -0.06020169406967684 0.00031549924661900274 -7.518728486819769e-05 0.00031549924661900274 -7.518728486819769e-05
 0.9871990111774783 -0.06020169406967685 -0.006256308704033406 0.007204614344485845 0.00031549924661900274 -7.518728486819769e-05 0.00031549924661900274 -7.518728486819769e-05
 0.00031549924661900274 -7.518728486819769e-05 0.00031549924661900274 -7.518728486819769e-05 -0.006957922100573897 0.008134486092226478 0.9853737869421141 -0.06754153474478845
 0.00031549924661900274 -7.518728486819769e-05 0.00031549924661900274 -7.518728486819769e-05 0.985373786942114 -0.06754153474478844 -0.006957922100573897 0.008134486092226476
211.0 -0.006233470672564588 0.0072265643264994295 0.9872197666552978 -0.06051041531669307 0.00031691726678442447 -7.589842507864544e-05 0.00031691726678442447 -7.589842507864544e-05
 0.9872197666552981 -0.060510415316693086 -0.006233470672564587 0.007226564326499434 0.00031691726678442447 -7.589842507864544e-05 0.00031691726678442447 -7.589842507864544e-05
 0.00031691726678442447 -7.589842507864544e-05 0.00031691726678442447 -7.589842507864544e-05 -0.0069318322406795195 0.008159212331834823 0.9853944392623144 -0.06788807774773228
 0.00031691726678442447 -7.589842507864544e-05 0.00031691726678442447 -7.589842507864544e-05 0.9853944392623142 -0.06788807774773227 -0.0069318322406795195 0.00815921233183482
212.0 -0.006210571161614204 0.007247927450417123 0.987240161297235 -0.060820182920585164 0.0003183340921702299 -7.661281761803644e-05 0.0003183340921702299 -7.661281761803644e-05
 0.9872401612972354 -0.06082018292058518 -0.006210571161614203 0.007247927450417127 0.0003183340921702299 -7.661281761803644e-05 0.0003183340921702299 -7.661281761803644e-05
 0.0003183340921702299 -7.661281761803644e-05 0.0003183340921702299 -7.661281761803644e-05 -0.006905668177728251 0.008183272302766473 0.9854146201494562 -0.06823580147310697
 0.0003183340921702299 -7.661281761803644e-05 0.0003183340921702299 -7.661281761803644e-05 0.9854146201494561 -0.06823580147310696 -0.006905668177728251 0.008183272302766472
213.0 -0.0061876716506638185 0.007269290574334817 0.9872605559391723 -0.06112995052447726 0.0003197497172903536 -7.733046070481579e-05 0.0003197497172903536 -7.733046070481579e-05
 0.9872605559391725 -0.061129950524477276 -0.006187671650663818 0.00726929057433482 0.0003197497172903536 -7.733046070481579e-05 0.0003197497172903536 -7.733046070481579e-05
 0.0003197497172903536 -7.733046070481579e-05 0.0003197497172903536 -7.733046070481579e-05 -0.006879504114776982 0.008207332273698126 0.9854348010365982 -0.06858352519848167
 0.0003197497172903536 -7.733046070481579e-05 0.0003197497172903536 -7.733046070481579e-05 0.9854348010365981 -0.06858352519848165 -0.006879504114776982 0.008207332273698124
214.0 -0.006164772139713433 0.007290653698252512 0.9872809505811095 -0.061439718128369354 0.0003211641366612193 -7.805135254924215e-05 0.0003211641366612193 -7.805135254924215e-05
 0.9872809505811098 -0.06143971812836937 -0.006164772139713433 0.0072906536982525125 0.0003211641366612193 -7.805135254924215e-05 0.0003211641366612193 -7.805135254924215e-05
 0.0003211641366612193 -7.805135254924215e-05 0.0003211641366612193 -7.805135254924215e-05 -0.006853340051825713 0.008231392244629779 0.98545498192374 -0.06893124892385635
 0.0003211641366612193 -7.805135254924215e-05 0.0003211641366612193 -7.805135254924215e-05 0.98545498192374 -0.06893124892385635 -0.006853340051825713 0.008231392244629777
215.0 -0.006141872628763049 0.007312016822170205 0.9873013452230468 -0.06174948573226145 0.0003225773448017509 -7.877549135339111e-05 0.0003225773448017509 -7.877549135339111e-05
 0.987301345223047 -0.06174948573226147 -0.006141872628763049 0.007312016822170206 0.0003225773448017509 -7.877549135339111e-05 0.0003225773448017509 -7.877549135339111e-05
 0.0003225773448017509 -7.877549135339111e-05 0.0003225773448017509 -7.877549135339111e-05 -0.0068271759888744446 0.00825545221556143 0.9854751628108819 -0.06927897264923105
 0.0003225773448017509 -7.877549135339111e-05 0.0003225773448017509 -7.877549135339111e-05 0.9854751628108819 -0.06927897264923104 -0.0068271759888744446 0.008255452215561428
216.0 -0.0061189633362235 0.007333250384772797 0.9873216524070122 -0.0620594829490875 0.000323989336233384 -7.950287531115854e-05 0.000323989336233384 -7.950287531115854e-05
 0.9873216524070124 -0.062059482949087516 -0.0061189633362235 0.007333250384772797 0.000323989336233384 -7.950287531115854e-05 0.000323989336233384 -7.950287531115854e-05
 0.000323989336233384 -7.950287531115854e-05 0.000323989336233384 -7.950287531115854e-05 -0.0068009998536534624 0.008279365078390733 0.9854952306621556 -0.06962695542106183
 0.000323989336233384 -7.950287531115854e-05 0.000323989336233384 -7.950287531115854e-05 0.9854952306621557 -0.06962695542106183 -0.0068009998536534624 0.008279365078390732
217.0 -0.006096014917327296 0.007353965702114982 0.9873416097590907 -0.0623703986176494 0.00032540010548007785 -8.023350260826393e-05 0.00032540010548007785 -8.023350260826393e-05
 0.9873416097590908 -0.062370398617649404 -0.006096014917327296 0.007353965702114982 0.00032540010548007785 -8.023350260826393e-05 0.00032540010548007785 -8.023350260826393e-05
 0.00032540010548007785 -8.023350260826393e-05 0.00032540010548007785 -8.023350260826393e-05 -0.006774775429353627 0.008302689508810647 0.9855148463699569 -0.069975974378717
 0.00032540010548007785 -8.023350260826393e-05 0.00032540010548007785 -8.023350260826393e-05 0.985514846369957 -0.069975974378717 -0.006774775429353627 0.008302689508810647
218.0 -0.006073066498431092 0.007374681019457168 0.9873615671111691 -0.06268131428621128 0.00032680964706832574 -8.09673714222538e-05 0.00032680964706832574 -8.09673714222538e-05
 0.9873615671111692 -0.06268131428621129 -0.006073066498431092 0.007374681019457168 0.00032680964706832574 -8.09673714222538e-05 0.00032680964706832574 -8.09673714222538e-05
 0.00032680964706832574 -8.09673714222538e-05 0.00032680964706832574 -8.09673714222538e-05 -0.006748551005053791 0.008326013939230558 0.9855344620777582 -0.07032499333637215
 0.00032680964706832574 -8.09673714222538e-05 0.00032680964706832574 -8.09673714222538e-05 0.9855344620777583 -0.07032499333637215 -0.006748551005053791 0.00832601393923056
219.0 -0.006050118079534888 0.0073953963367993526 0.9873815244632476 -0.06299222995477317 0.0003282179555271675 -8.170447992250513e-05 0.0003282179555271675 -8.170447992250513e-05
 0.9873815244632476 -0.06299222995477317 -0.006050118079534888 0.0073953963367993526 0.0003282179555271675 -8.170447992250513e-05 0.0003282179555271675 -8.170447992250513e-05
 0.0003282179555271675 -8.170447992250513e-05 0.0003282179555271675 -8.170447992250513e-05 -0.006722326580753955 0.008349338369650471 0.9855540777855595 -0.07067401229402731
 0.0003282179555271675 -8.170447992250513e-05 0.0003282179555271675 -8.170447992250513e-05 0.9855540777855596 -0.07067401229402732 -0.006722326580753955 0.008349338369650473
220.0 -0.006027169660638684 0.007416111654141538 0.9874014818153259 -0.06330314562333506 0.0003296250253882 -8.244482627022866e-05 0.0003296250253882 -8.244482627022866e-05
 0.9874014818153259 -0.06330314562333507 -0.006027169660638684 0.007416111654141538 0.0003296250253882 -8.244482627022866e-05 0.0003296250253882 -8.244482627022866e-05
 0.0003296250253882 -8.244482627022866e-05 0.0003296250253882 -8.244482627022866e-05 -0.006696102156454119 0.008372662800070383 0.9855736934933608 -0.07102303125168248
 0.0003296250253882 -8.244482627022866e-05 0.0003296250253882 -8.244482627022866e-05 0.9855736934933609 -0.07102303125168248 -0.006696102156454119 0.008372662800070386
221.0 -0.006004212009124209 0.007436634697745737 0.9874212959469912 -0.06361440205984416 0.00033103085118558947 -8.318840861847246e-05 0.00033103085118558947 -8.318840861847246e-05
 0.9874212959469912 -0.06361440205984416 -0.006004212009124209 0.007436634697745737 0.00033103085118558947 -8.318840861847246e-05 0.00033103085118558947 -8.318840861847246e-05
 0.00033103085118558947 -8.318840861847246e-05 0.00033103085118558947 -8.318840861847246e-05 -0.006669865814520512 0.008395768883774987 0.9855931259689278 -0.07137243455715929
 0.00033103085118558947 -8.318840861847246e-05 0.00033103085118558947 -8.318840861847246e-05 0.9855931259689278 -0.0713724345571593 -0.006669865814520512 0.00839576888377499
222.0 -0.0059812328148337686 0.007456709102627969 0.9874407758976926 -0.0639264536215634 0.0003324354274560819 -8.393522511212529e-05 0.0003324354274560819 -8.393522511212529e-05
 0.9874407758976927 -0.0639264536215634 -0.0059812328148337686 0.00745670910262797 0.0003324354274560819 -8.393522511212529e-05 0.0003324354274560819 -8.393522511212529e-05
 0.0003324354274560819 -8.393522511212529e-05 0.0003324354274560819 -8.393522511212529e-05 -0.0066436016647747715 0.008418365491810537 0.9856121309026147 -0.07172273467421994
 0.0003324354274560819 -8.393522511212529e-05 0.0003324354274560819 -8.393522511212529e-05 0.9856121309026148 -0.07172273467421995 -0.0066436016647747715 0.008418365491810539
223.0 -0.005958253620543328 0.007476783507510201 0.987460255848394 -0.06423850518328264 0.00033383874873901516 -8.468527388792004e-05 0.00033383874873901516 -8.468527388792004e-05
 0.9874602558483943 -0.06423850518328265 -0.005958253620543328 0.007476783507510202 0.00033383874873901516 -8.468527388792004e-05 0.00033383874873901516 -8.468527388792004e-05
 0.00033383874873901516 -8.468527388792004e-05 0.00033383874873901516 -8.468527388792004e-05 -0.00661733751502903 0.008440962099846088 0.9856311358363017 -0.0720730347912806
 0.00033383874873901516 -8.468527388792004e-05 0.00033383874873901516 -8.468527388792004e-05 0.9856311358363017 -0.0720730347912806 -0.00661733751502903 0.008440962099846086
224.0 -0.005935274426252887 0.007496857912392433 0.9874797357990955 -0.06455055674500189 0.00033524080957633023 -8.543855307443733e-05 0.00033524080957633023 -8.543855307443733e-05
 0.9874797357990958 -0.0645505567450019 -0.005935274426252887 0.007496857912392434 0.00033524080957633023 -8.543855307443733e-05 0.00033524080957633023 -8.543855307443733e-05
 0.00033524080957633023 -8.543855307443733e-05 0.00033524080957633023 -8.543855307443733e-05 -0.006591073365283289 0.008463558707881638 0.9856501407699887 -0.07242333490834127
 0.00033524080957633023 -8.543855307443733e-05 0.00033524080957633023 -8.543855307443733e-05 0.9856501407699886 -0.07242333490834126 -0.006591073365283289 0.008463558707881635
225.0 -0.005912295231962447 0.007516932317274665 0.9874992157497969 -0.06486260830672114 0.0003366416045125825 -8.619506079210884e-05 0.0003366416045125825 -8.619506079210884e-05
 0.9874992157497973 -0.06486260830672115 -0.005912295231962447 0.007516932317274667 0.0003366416045125825 -8.619506079210884e-05 0.0003366416045125825 -8.619506079210884e-05
 0.0003366416045125825 -8.619506079210884e-05 0.0003366416045125825 -8.619506079210884e-05 -0.006564809215537548 0.008486155315917189 0.9856691457036757 -0.07277363502540193
 0.0003366416045125825 -8.619506079210884e-05 0.0003366416045125825 -8.619506079210884e-05 0.9856691457036755 -0.0727736350254019 -0.006564809215537548 0.008486155315917182
226.0 -0.005889311427816609 0.007536752243681242 0.9875184906223441 -0.06517511094850913 0.00033804112809495296 -8.695479515322085e-05 0.00033804112809495296 -8.695479515322085e-05
 0.9875184906223444 -0.06517511094850914 -0.005889311427816609 0.0075367522436812434 0.00033804112809495296 -8.695479515322085e-05 0.00033804112809495296 -8.695479515322085e-05
 0.00033804112809495296 -8.695479515322085e-05 0.00033804112809495296 -8.695479515322085e-05 -0.0065385379402564 0.008508462918519607 0.9856878902390278 -0.07312444376666993
 0.00033804112809495296 -8.695479515322085e-05 0.00033804112809495296 -8.695479515322085e-05 0.9856878902390276 -0.0731244437666699 -0.0065385379402564 0.0085084629185196
227.0 -0.005866320708887675 0.007556190452374334 0.98753745787766 -0.06548829021040022 0.00033943937487326 -8.771775426191793e-05 0.00033943937487326 -8.771775426191793e-05
 0.9875374578776602 -0.06548829021040023 -0.005866320708887675 0.007556190452374335 0.00033943937487326 -8.771775426191793e-05 0.00033943937487326 -8.771775426191793e-05
 0.00033943937487326 -8.771775426191793e-05 0.00033943937487326 -8.771775426191793e-05 -0.006512255976672142 0.008530337012972329 0.9857062441768776 -0.07347601544424895
 0.00033943937487326 -8.771775426191793e-05 0.00033943937487326 -8.771775426191793e-05 0.9857062441768774 -0.07347601544424892 -0.006512255976672142 0.008530337012972322
228.0 -0.00584332998995874 0.0075756286610674265 0.9875564251329759 -0.06580146947229132 0.0003408363393999705 -8.848393621420618e-05 0.0003408363393999705 -8.848393621420618e-05
 0.9875564251329761 -0.06580146947229133 -0.00584332998995874 0.007575628661067427 0.0003408363393999705 -8.848393621420618e-05 0.0003408363393999705 -8.848393621420618e-05
 0.0003408363393999705 -8.848393621420618e-05 0.0003408363393999705 -8.848393621420618e-05 -0.006485974013087884 0.008552211107425049 0.9857245981147275 -0.07382758712182796
 0.0003408363393999705 -8.848393621420618e-05 0.0003408363393999705 -8.848393621420618e-05 0.9857245981147272 -0.07382758712182794 -0.006485974013087884 0.008552211107425043
229.0 -0.005820339271029805 0.007595066869760519 0.9875753923882918 -0.06611464873418242 0.00034223201623021133 -8.92533390979571e-05 0.00034223201623021133 -8.92533390979571e-05
 0.987575392388292 -0.06611464873418242 -0.005820339271029805 0.00759506686976052 0.00034223201623021133 -8.92533390979571e-05 0.00034223201623021133 -8.92533390979571e-05
 0.00034223201623021133 -8.92533390979571e-05 0.00034223201623021133 -8.92533390979571e-05 -0.006459692049503626 0.008574085201877768 0.9857429520525772 -0.07417915879940698
 0.00034223201623021133 -8.92533390979571e-05 0.00034223201623021133 -8.92533390979571e-05 0.985742952052577 -0.07417915879940695 -0.006459692049503626 0.008574085201877767
230.0 -0.005797348552100871 0.007614505078453611 0.9875943596436078 -0.06642782799607352 0.0003436263999217808 -9.002596099291096e-05 0.0003436263999217808 -9.002596099291096e-05
 0.9875943596436078 -0.06642782799607352 -0.005797348552100871 0.007614505078453611 0.0003436263999217808 -9.002596099291096e-05 0.0003436263999217808 -9.002596099291096e-05
 0.0003436263999217808 -9.002596099291096e-05 0.0003436263999217808 -9.002596099291096e-05 -0.0064334100859193685 0.008595959296330488 0.9857613059904271 -0.074530730476986
 0.0003436263999217808 -9.002596099291096e-05 0.0003436263999217808 -9.002596099291096e-05 0.9857613059904269 -0.07453073047698597 -0.0064334100859193685 0.008595959296330488
231.0 -0.005774360625542899 0.007633629006695186 0.9876130531107338 -0.06674156140837566 0.00034501948503515924 -9.080179997068027e-05 0.00034501948503515924 -9.080179997068027e-05
 0.9876130531107338 -0.06674156140837566 -0.005774360625542899 0.007633629006695186 0.00034501948503515924 -9.080179997068027e-05 0.00034501948503515924 -9.080179997068027e-05
 0.00034501948503515924 -9.080179997068027e-05 0.00034501948503515924 -9.080179997068027e-05 -0.00640712896363128 0.008617476419516223 0.9857793146016327 -0.07488292683475888
 0.00034501948503515924 -9.080179997068027e-05 0.00034501948503515924 -9.080179997068027e-05 0.9857793146016326 -0.07488292683475886 -0.00640712896363128 0.008617476419516223
232.0 -0.005751375491355888 0.007652438654485245 0.9876314727896699 -0.06705584897108885 0.00034641126613352177 -9.158085409475376e-05 0.00034641126613352177 -9.158085409475376e-05
 0.9876314727896699 -0.06705584897108885 -0.005751375491355888 0.007652438654485244 0.00034641126613352177 -9.158085409475376e-05 0.00034641126613352177 -9.158085409475376e-05
 0.00034641126613352177 -9.158085409475376e-05 0.00034641126613352177 -9.158085409475376e-05 -0.006380848682639361 0.00863863657143497 0.9857969778861942 -0.07523574787272563
 0.00034641126613352177 -9.158085409475376e-05 0.00034641126613352177 -9.158085409475376e-05 0.9857969778861941 -0.07523574787272562 -0.006380848682639361 0.008638636571434972
233.0 -0.005728390357168878 0.007671248302275302 0.987649892468606 -0.06737013653380204 0.00034780173778274843 -9.23631214204996e-05 0.00034780173778274843 -9.23631214204996e-05
 0.987649892468606 -0.06737013653380204 -0.005728390357168878 0.007671248302275301 0.00034780173778274843 -9.23631214204996e-05 0.00034780173778274843 -9.23631214204996e-05
 0.00034780173778274843 -9.23631214204996e-05 0.00034780173778274843 -9.23631214204996e-05 -0.006354568401647443 0.00865979672335372 0.9858146411707558 -0.07558856891069239
 0.00034780173778274843 -9.23631214204996e-05 0.00034780173778274843 -9.23631214204996e-05 0.9858146411707557 -0.07558856891069238 -0.006354568401647443 0.008659796723353722
234.0 -0.005705405222981867 0.00769005795006536 0.9876683121475421 -0.06768442409651523 0.0003491908945514361 -9.314859999516927e-05 0.0003491908945514361 -9.314859999516927e-05
 0.9876683121475421 -0.06768442409651523 -0.005705405222981867 0.007690057950065358 0.0003491908945514361 -9.314859999516927e-05 0.0003491908945514361 -9.314859999516927e-05
 0.0003491908945514361 -9.314859999516927e-05 0.0003491908945514361 -9.314859999516927e-05 -0.006328288120655525 0.008680956875272467 0.9858323044553173 -0.07594138994865915
 0.0003491908945514361 -9.314859999516927e-05 0.0003491908945514361 -9.314859999516927e-05 0.9858323044553173 -0.07594138994865915 -0.006328288120655525 0.008680956875272471
235.0 -0.005682420088794856 0.007708867597855418 0.9876867318264783 -0.06799871165922843 0.0003505787310109096 -9.393728785790104e-05 0.0003505787310109096 -9.393728785790104e-05
 0.9876867318264783 -0.06799871165922843 -0.005682420088794856 0.007708867597855416 0.0003505787310109096 -9.393728785790104e-05 0.0003505787310109096 -9.393728785790104e-05
 0.0003505787310109096 -9.393728785790104e-05 0.0003505787310109096 -9.393728785790104e-05 -0.006302007839663607 0.008702117027191215 0.9858499677398789 -0.07629421098662591
 0.0003505787310109096 -9.393728785790104e-05 0.0003505787310109096 -9.393728785790104e-05 0.9858499677398789 -0.07629421098662591 -0.006302007839663607 0.00870211702719122
236.0 -0.00565944886542245 0.007727304167663053 0.987704800328388 -0.06831365631098489 0.0003519652417352332 -9.472918303972379e-05 0.0003519652417352332 -9.472918303972379e-05
 0.987704800328388 -0.06831365631098489 -0.00565944886542245 0.007727304167663051 0.0003519652417352332 -9.472918303972379e-05 0.0003519652417352332 -9.472918303972379e-05
 0.0003519652417352332 -9.472918303972379e-05 0.0003519652417352332 -9.472918303972379e-05 -0.006275740596212106 0.008722853383264903 0.9858671908966848 -0.07664777249091598
 0.0003519652417352332 -9.472918303972379e-05 0.0003519652417352332 -9.472918303972379e-05 0.9858671908966847 -0.07664777249091598 -0.006275740596212106 0.008722853383264907
237.0 -0.005636486915926448 0.0077454920188157386 0.9877226347122803 -0.06862903902210352 0.0003533504213012219 -9.552428356356052e-05 0.0003533504213012219 -9.552428356356052e-05
 0.9877226347122804 -0.06862903902210352 -0.005636486915926448 0.0077454920188157386 0.0003533504213012219 -9.552428356356052e-05 0.0003533504213012219 -9.552428356356052e-05
 0.0003533504213012219 -9.552428356356052e-05 0.0003533504213012219 -9.552428356356052e-05 -0.006249482044454214 0.008743307208775215 0.9858841206349869 -0.07700182763942158
 0.0003533504213012219 -9.552428356356052e-05 0.0003533504213012219 -9.552428356356052e-05 0.9858841206349868 -0.07700182763942158 -0.006249482044454215 0.008743307208775218
238.0 -0.005613524966430445 0.0077636798699684244 0.9877404690961725 -0.06894442173322216 0.0003547342642884526 -9.63225874442322e-05 0.0003547342642884526 -9.63225874442322e-05
 0.9877404690961726 -0.06894442173322216 -0.005613524966430445 0.007763679869968425 0.0003547342642884526 -9.63225874442322e-05 0.0003547342642884526 -9.63225874442322e-05
 0.0003547342642884526 -9.63225874442322e-05 0.0003547342642884526 -9.63225874442322e-05 -0.006223223492696324 0.008763761034285528 0.985901050373289 -0.07735588278792718
 0.0003547342642884526 -9.63225874442322e-05 0.0003547342642884526 -9.63225874442322e-05 0.9859010503732889 -0.07735588278792718 -0.006223223492696325 0.00876376103428553
239.0 -0.005590563016934443 0.00778186772112111 0.9877583034800649 -0.0692598044443408 0.00035611676527927584 -9.712409268846132e-05 0.00035611676527927584 -9.712409268846132e-05
 0.9877583034800649 -0.0692598044443408 -0.005590563016934443 0.007781867721121113 0.00035611676527927584 -9.712409268846132e-05 0.00035611676527927584 -9.712409268846132e-05
 0.00035611676527927584 -9.712409268846132e-05 0.00035611676527927584 -9.712409268846132e-05 -0.006196964940938433 0.00878421485979584 0.9859179801115912 -0.07770993793643279
 0.00035611676527927584 -9.712409268846132e-05 0.00035611676527927584 -9.712409268846132e-05 0.9859179801115909 -0.07770993793643279 -0.006196964940938434 0.008784214859795839
240.0 -0.00556760106743844 0.007800055572273796 0.9877761378639571 -0.06957518715545943 0.0003574979188588264 -9.79287972948757e-05 0.0003574979188588264 -9.79287972948757e-05
 0.9877761378639572 -0.06957518715545943 -0.00556760106743844 0.0078000555722738 0.0003574979188588264 -9.79287972948757e-05 0.0003574979188588264 -9.79287972948757e-05
 0.0003574979188588264 -9.79287972948757e-05 0.0003574979188588264 -9.79287972948757e-05 -0.006170706389180543 0.008804668685306154 0.9859349098498933 -0.07806399308493839
 0.0003574979188588264 -9.79287972948757e-05 0.0003574979188588264 -9.79287972948757e-05 0.985934909849893 -0.07806399308493839 -0.0061707063891805435 0.00880466868530615
241.0 -0.005544666853012943 0.00781781328883937 0.9877935413369555 -0.06989132651116295 0.0003588777196150353 -9.873669925401223e-05 0.0003588777196150353 -9.873669925401223e-05
 0.9877935413369556 -0.06989132651116295 -0.005544666853012943 0.007817813288839374 0.0003588777196150353 -9.873669925401223e-05 0.0003588777196150353 -9.873669925401223e-05
 0.0003588777196150353 -9.873669925401223e-05 0.0003588777196150353 -9.873669925401223e-05 -0.006144476168665646 0.008824633857031246 0.9859513019229778 -0.07841890061897885
 0.0003588777196150353 -9.873669925401223e-05 0.0003588777196150353 -9.873669925401223e-05 0.9859513019229774 -0.07841890061897884 -0.006144476168665647 0.008824633857031243
242.0 -0.0055217445250462325 0.007835386662010469 0.9878107601338566 -0.07020779014311712 0.00036025616213864104 -9.954779654832054e-05 0.00036025616213864104 -9.954779654832054e-05
 0.9878107601338567 -0.07020779014311714 -0.0055217445250462325 0.007835386662010472 0.00036025616213864104 -9.954779654832054e-05 0.00036025616213864104 -9.954779654832054e-05
 0.00036025616213864104 -9.954779654832054e-05 0.00036025616213864104 -9.954779654832054e-05 -0.006118258090112031 0.008844389605705532 0.9859674635681118 -0.07877417346110567
 0.00036025616213864104 -9.954779654832054e-05 0.00036025616213864104 -9.954779654832054e-05 0.9859674635681116 -0.07877417346110567 -0.006118258090112032 0.008844389605705529
243.0 -0.005498822197079522 0.007852960035181569 0.9878279789307577 -0.07052425377507131 0.0003616332410232003 -0.00010036208715216687 0.0003616332410232003 -0.00010036208715216687
 0.9878279789307578 -0.07052425377507131 -0.005498822197079522 0.007852960035181569 0.0003616332410232003 -0.00010036208715216687 0.0003616332410232003 -0.00010036208715216687
 0.0003616332410232003 -0.00010036208715216687 0.0003616332410232003 -0.00010036208715216687 -0.006092040011558417 0.008864145354379816 0.9859836252132459 -0.07912944630323249
 0.0003616332410232003 -0.00010036208715216687 0.0003616332410232003 -0.00010036208715216687 0.9859836252132458 -0.07912944630323249 -0.006092040011558418 0.008864145354379816
244.0 -0.005475899869112812 0.007870533408352667 0.9878451977276588 -0.07084071740702548 0.0003630089508650998 -0.00010117956903183768 0.0003630089508650998 -0.00010117956903183768
 0.9878451977276589 -0.0708407174070255 -0.005475899869112812 0.007870533408352667 0.0003630089508650998 -0.00010117956903183768 0.0003630089508650998 -0.00010117956903183768
 0.0003630089508650998 -0.00010117956903183768 0.0003630089508650998 -0.00010117956903183768 -0.0060658219330048035 0.008883901103054101 0.98599978685838 -0.07948471914535932
 0.0003630089508650998 -0.00010117956903183768 0.0003630089508650998 -0.00010117956903183768 0.98599978685838 -0.07948471914535932 -0.0060658219330048035 0.008883901103054101
245.0 -0.005452977541146102 0.007888106781523765 0.9878624165245599 -0.07115718103897967 0.00036438328626356756 -0.00010200024014554371 0.00036438328626356756 -0.00010200024014554371
 0.98786241652456 -0.07115718103897967 -0.005452977541146102 0.007888106781523763 0.00036438328626356756 -0.00010200024014554371 0.00036438328626356756 -0.00010200024014554371
 0.00036438328626356756 -0.00010200024014554371 0.00036438328626356756 -0.00010200024014554371 -0.00603960385445119 0.008903656851728387 0.986015948503514 -0.07983999198748613
 0.00036438328626356756 -0.00010200024014554371 0.00036438328626356756 -0.00010200024014554371 0.986015948503514 -0.07983999198748615 -0.00603960385445119 0.008903656851728387
246.0 -0.005430099494613314 0.007905194938133242 0.9878791135202605 -0.07147449402454081 0.000365756241820684 -0.00010282409844342351 0.000365756241820684 -0.00010282409844342351
 0.9878791135202606 -0.07147449402454083 -0.005430099494613314 0.007905194938133239 0.000365756241820684 -0.00010282409844342351 0.000365756241820684 -0.00010282409844342351
 0.000365756241820684 -0.00010282409844342351 0.000365756241820684 -0.00010282409844342351 -0.00601343251060295 0.008922861309762609 0.9860314623593186 -0.08019622128657448
 0.000365756241820684 -0.00010282409844342351 0.000365756241820684 -0.00010282409844342351 0.9860314623593187 -0.0801962212865745 -0.00601343251060295 0.008922861309762609
247.0 -0.005407232518439006 0.007922161790602313 0.9878956800656611 -0.0717920193485037 0.0003671278121413931 -0.00010365114186754745 0.0003671278121413931 -0.00010365114186754745
 0.9878956800656612 -0.07179201934850371 -0.005407232518439006 0.00792216179060231 0.0003671278121413931 -0.00010365114186754745 0.0003671278121413931 -0.00010365114186754745
 0.0003671278121413931 -0.00010365114186754745 0.0003671278121413931 -0.00010365114186754745 -0.005987272850431054 0.008941927945136813 0.9860468142677908 -0.08055268969990323
 0.0003671278121413931 -0.00010365114186754745 0.0003671278121413931 -0.00010365114186754745 0.986046814267791 -0.08055268969990323 -0.005987272850431054 0.008941927945136813
248.0 -0.005384365542264698 0.007939128643071384 0.9879122466110616 -0.0721095446724666 0.00036849799183351426 -0.0001044813683519215 0.00036849799183351426 -0.0001044813683519215
 0.9879122466110617 -0.07210954467246661 -0.005384365542264698 0.007939128643071381 0.00036849799183351426 -0.0001044813683519215 0.00036849799183351426 -0.0001044813683519215
 0.00036849799183351426 -0.0001044813683519215 0.00036849799183351426 -0.0001044813683519215 -0.005961113190259157 0.008960994580511018 0.9860621661762631 -0.08090915811323196
 0.00036849799183351426 -0.0001044813683519215 0.00036849799183351426 -0.0001044813683519215 0.9860621661762631 -0.08090915811323197 -0.005961113190259157 0.008960994580511018
249.0 -0.005361498566090389 0.007956095495540457 0.9879288131564622 -0.07242706999642948 0.0003698667755077527 -0.00010531477582249102 0.0003698667755077527 -0.00010531477582249102
 0.9879288131564623 -0.07242706999642949 -0.005361498566090389 0.007956095495540452 0.0003698667755077527 -0.00010531477582249102 0.0003698667755077527 -0.00010531477582249102
 0.0003698667755077527 -0.00010531477582249102 0.0003698667755077527 -0.00010531477582249102 -0.005934953530087261 0.008980061215885224 0.9860775180847353 -0.0812656265265607
 0.0003698667755077527 -0.00010531477582249102 0.0003698667755077527 -0.00010531477582249102 0.9860775180847353 -0.0812656265265607 -0.005934953530087261 0.008980061215885224
250.0 -0.005338631589916081 0.007973062348009529 0.9879453797018627 -0.07274459532039237 0.00037123415777771143 -0.00010615136219714471 0.00037123415777771143 -0.00010615136219714471
 0.9879453797018628 -0.07274459532039239 -0.005338631589916081 0.007973062348009523 0.00037123415777771143 -0.00010615136219714471 0.00037123415777771143 -0.00010615136219714471
 0.00037123415777771143 -0.00010615136219714471 0.00037123415777771143 -0.00010615136219714471 -0.005908793869915365 0.008999127851259428 0.9860928699932076 -0.08162209493988944
 0.00037123415777771143 -0.00010615136219714471 0.00037123415777771143 -0.00010615136219714471 0.9860928699932076 -0.08162209493988944 -0.005908793869915365 0.008999127851259428
251.0 -0.005315828628390737 0.007989491114476924 0.98796133048239 -0.0730630622884773 0.0003726001332599024 -0.00010699112538571856 0.0003726001332599024 -0.00010699112538571856
 0.9879613304823901 -0.07306306228847731 -0.005315828628390737 0.00798949111447692 0.0003726001332599024 -0.00010699112538571856 0.0003726001332599024 -0.00010699112538571856
 0.0003726001332599024 -0.00010699112538571856 0.0003726001332599024 -0.00010699112538571856 -0.005882702975227784 0.009017583069921878 0.9861074604109985 -0.08197962331719935
 0.0003726001332599024 -0.00010699112538571856 0.0003726001332599024 -0.00010699112538571856 0.9861074604109984 -0.08197962331719935 -0.005882702975227784 0.00901758306992188
252.0 -0.0052930327796041655 0.0080058600936108 0.987977212844598 -0.0733816338836869 0.00037396469657375756 -0.0001078340632899996 0.00037396469657375756 -0.0001078340632899996
 0.9879772128445982 -0.0733816338836869 -0.0052930327796041655 0.0080058600936108 0.00037396469657375756 -0.0001078340632899996 0.00037396469657375756 -0.0001078340632899996
 0.00037396469657375756 -0.0001078340632899996 0.00037396469657375756 -0.0001078340632899996 -0.005856619721149572 0.009035970353394134 0.9861219662187137 -0.08233726946828496
 0.00037396469657375756 -0.0001078340632899996 0.00037396469657375756 -0.0001078340632899996 0.9861219662187136 -0.08233726946828494 -0.005856619721149572 0.009035970353394136
253.0 -0.005270236930817594 0.008022229072744675 0.9879930952068061 -0.0737002054788965 0.00037532784234163997 -0.00010868017380372981 0.00037532784234163997 -0.00010868017380372981
 0.9879930952068062 -0.0737002054788965 -0.005270236930817594 0.008022229072744679 0.00037532784234163997 -0.00010868017380372981 0.00037532784234163997 -0.00010868017380372981
 0.00037532784234163997 -0.00010868017380372981 0.00037532784234163997 -0.00010868017380372981 -0.005830536467071359 0.009054357636866388 0.986136472026429 -0.08269491561937055
 0.00037532784234163997 -0.00010868017380372981 0.00037532784234163997 -0.00010868017380372981 0.9861364720264288 -0.08269491561937053 -0.005830536467071359 0.009054357636866392
254.0 -0.005247441082031023 0.008038598051878551 0.9880089775690142 -0.07401877707410609 0.00037668956518885545 -0.00010952945481261025 0.00037668956518885545 -0.00010952945481261025
 0.9880089775690142 -0.07401877707410609 -0.005247441082031023 0.008038598051878556 0.00037668956518885545 -0.00010952945481261025 0.00037668956518885545 -0.00010952945481261025
 0.00037668956518885545 -0.00010952945481261025 0.00037668956518885545 -0.00010952945481261025 -0.005804453212993147 0.009072744920338644 0.9861509778341442 -0.08305256177045615
 0.00037668956518885545 -0.00010952945481261025 0.00037668956518885545 -0.00010952945481261025 0.986150977834144 -0.08305256177045613 -0.005804453212993147 0.009072744920338648
255.0 -0.0052246452332444515 0.008054967031012427 0.9880248599312222 -0.07433734866931568 0.0003780498597436637 -0.00011038190419430477 0.0003780498597436637 -0.00011038190419430477
 0.9880248599312222 -0.07433734866931568 -0.0052246452332444515 0.008054967031012435 0.0003780498597436637 -0.00011038190419430477 0.0003780498597436637 -0.00011038190419430477
 0.0003780498597436637 -0.00011038190419430477 0.0003780498597436637 -0.00011038190419430477 -0.005778369958914934 0.009091132203810899 0.9861654836418594 -0.08341020792154175
 0.0003780498597436637 -0.00011038190419430477 0.0003780498597436637 -0.00011038190419430477 0.9861654836418592 -0.08341020792154172 -0.005778369958914934 0.009091132203810904
256.0 -0.00520193475839237 0.008070746328195766 0.9880400320616299 -0.07465694611886468 0.0003794087206372894 -0.00011123751981844415 0.0003794087206372894 -0.00011123751981844415
 0.9880400320616298 -0.07465694611886468 -0.00520193475839237 0.008070746328195773 0.0003794087206372894 -0.00011123751981844415 0.0003794087206372894 -0.00011123751981844415
 0.0003794087206372894 -0.00011123751981844415 0.0003794087206372894 -0.00011123751981844415 -0.005752379396127028 0.009108849387367937 0.9861791136454703 -0.08376900840056062
 0.0003794087206372894 -0.00011123751981844415 0.0003794087206372894 -0.00011123751981844415 0.9861791136454701 -0.08376900840056059 -0.005752379396127028 0.009108849387367942
257.0 -0.005179224283540289 0.008086525625379105 0.9880552041920376 -0.07497654356841368 0.0003807661425039336 -0.00011209629954662996 0.0003807661425039336 -0.00011209629954662996
 0.9880552041920374 -0.07497654356841367 -0.005179224283540289 0.00808652562537911 0.0003807661425039336 -0.00011209629954662996 0.0003807661425039336 -0.00011209629954662996
 0.0003807661425039336 -0.00011209629954662996 0.0003807661425039336 -0.00011209629954662996 -0.005726388833339122 0.009126566570924975 0.9861927436490812 -0.08412780887957948
 0.0003807661425039336 -0.00011209629954662996 0.0003807661425039336 -0.00011209629954662996 0.986192743649081 -0.08412780887957946 -0.005726388833339122 0.00912656657092498
258.0 -0.005156513808688207 0.008102304922562444 0.9880703763224452 -0.07529614101796268 0.0003821221199807845 -0.00011295824123243856 0.0003821221199807845 -0.00011295824123243856
 0.9880703763224451 -0.07529614101796267 -0.005156513808688207 0.008102304922562448 0.0003821221199807845 -0.00011295824123243856 0.0003821221199807845 -0.00011295824123243856
 0.0003821221199807845 -0.00011295824123243856 0.0003821221199807845 -0.00011295824123243856 -0.005700398270551216 0.009144283754482013 0.986206373652692 -0.08448660935859835
 0.0003821221199807845 -0.00011295824123243856 0.0003821221199807845 -0.00011295824123243856 0.9862063736526919 -0.08448660935859834 -0.005700398270551216 0.009144283754482018
259.0 -0.005133803333836126 0.008118084219745783 0.9880855484528529 -0.07561573846751168 0.00038347664770802946 -0.00011382334272142523 0.00038347664770802946 -0.00011382334272142523
 0.9880855484528527 -0.07561573846751166 -0.005133803333836126 0.008118084219745785 0.00038347664770802946 -0.00011382334272142523 0.00038347664770802946 -0.00011382334272142523
 0.00038347664770802946 -0.00011382334272142523 0.00038347664770802946 -0.00011382334272142523 -0.00567440770776331 0.009162000938039051 0.9862200036563029 -0.08484540983761721
 0.00038347664770802946 -0.00011382334272142523 0.00038347664770802946 -0.00011382334272142523 0.9862200036563028 -0.08484540983761721 -0.00567440770776331 0.009162000938039058
260.0 -0.005111102819896281 0.008133805396294052 0.9881006465473474 -0.07593543670630987 0.0003848297203288657 -0.00011469160185112794 0.0003848297203288657 -0.00011469160185112794
 0.9881006465473471 -0.07593543670630984 -0.005111102819896281 0.008133805396294052 0.0003848297203288657 -0.00011469160185112794 0.0003848297203288657 -0.00011469160185112794
 0.0003848297203288657 -0.00011469160185112794 0.0003848297203288657 -0.00011469160185112794 -0.005648428040301487 0.009179652069863438 0.986233542649858 -0.08520432367698853
 0.0003848297203288657 -0.00011469160185112794 0.0003848297203288657 -0.00011469160185112794 0.986233542649858 -0.08520432367698853 -0.005648428040301487 0.009179652069863445
261.0 -0.005088491954166565 0.0081490034871267 0.9881150783186232 -0.07625604204835072 0.0003861813324895114 -0.00011556301645107171 0.0003861813324895114 -0.00011556301645107171
 0.9881150783186229 -0.0762560420483507 -0.005088491954166565 0.008149003487126702 0.0003861813324895114 -0.00011556301645107171 0.0003861813324895114 -0.00011556301645107171
 0.0003861813324895114 -0.00011556301645107171 0.0003861813324895114 -0.00011556301645107171 -0.005622546430774401 0.009196708736093975 0.9862462625529115 -0.08556425775953198
 0.0003861813324895114 -0.00011556301645107171 0.0003861813324895114 -0.00011556301645107171 0.9862462625529115 -0.08556425775953198 -0.005622546430774401 0.009196708736093982
262.0 -0.0050658810884368485 0.008164201577959348 0.988129510089899 -0.07657664739039159 0.00038753147883921723 -0.00011643758434277234 0.00038753147883921723 -0.00011643758434277234
 0.9881295100898987 -0.07657664739039156 -0.005065881088436848 0.008164201577959352 0.00038753147883921723 -0.00011643758434277234 0.00038753147883921723 -0.00011643758434277234
 0.00038753147883921723 -0.00011643758434277234 0.00038753147883921723 -0.00011643758434277234 -0.005596664821247317 0.009213765402324514 0.986258982455965 -0.08592419184207543
 0.00038753147883921723 -0.00011643758434277234 0.00038753147883921723 -0.00011643758434277234 0.986258982455965 -0.08592419184207543 -0.005596664821247317 0.009213765402324518
263.0 -0.005043270222707132 0.008179399668791996 0.9881439418611747 -0.07689725273243245 0.0003888801540302774 -0.00011731530333974075 0.0003888801540302774 -0.00011731530333974075
 0.9881439418611745 -0.07689725273243242 -0.00504327022270713 0.008179399668792001 0.0003888801540302774 -0.00011731530333974075 0.0003888801540302774 -0.00011731530333974075
 0.0003888801540302774 -0.00011731530333974075 0.0003888801540302774 -0.00011731530333974075 -0.005570783211720233 0.009230822068555052 0.9862717023590184 -0.08628412592461887
 0.0003888801540302774 -0.00011731530333974075 0.0003888801540302774 -0.00011731530333974075 0.9862717023590184 -0.08628412592461887 -0.005570783211720232 0.009230822068555055
264.0 -0.005020659356977416 0.008194597759624644 0.9881583736324505 -0.0772178580744733 0.0003902273527180409 -0.00011819617124748683 0.0003902273527180409 -0.00011819617124748683
 0.9881583736324503 -0.07721785807447328 -0.005020659356977414 0.00819459775962465 0.0003902273527180409 -0.00011819617124748683 0.0003902273527180409 -0.00011819617124748683
 0.0003902273527180409 -0.00011819617124748683 0.0003902273527180409 -0.00011819617124748683 -0.005544901602193148 0.00924787873478559 0.9862844222620719 -0.08664406000716232
 0.0003902273527180409 -0.00011819617124748683 0.0003902273527180409 -0.00011819617124748683 0.9862844222620719 -0.08664406000716232 -0.005544901602193147 0.009247878734785591
265.0 -0.0049980712517355835 0.008209681606856867 0.9881726509807854 -0.07753866091182324 0.0003915730695609227 -0.0001190801858635237 0.0003915730695609227 -0.0001190801858635237
 0.9881726509807852 -0.07753866091182321 -0.004998071251735582 0.008209681606856874 0.0003915730695609227 -0.0001190801858635237 0.0003915730695609227 -0.0001190801858635237
 0.0003915730695609227 -0.0001190801858635237 0.0003915730695609227 -0.0001190801858635237 -0.00551904502291224 0.009264805555626013 0.9862969529271016 -0.08700421610542365
 0.0003915730695609227 -0.0001190801858635237 0.0003915730695609227 -0.0001190801858635237 0.9862969529271016 -0.08700421610542365 -0.005519045022912239 0.009264805555626015
266.0 -0.0049755741884452915 0.008224308479687387 0.9881863106373567 -0.07786025373040947 0.0003929172992204148 -0.00011996734497737175 0.0003929172992204148 -0.00011996734497737175
 0.9881863106373566 -0.07786025373040946 -0.00497557418844529 0.008224308479687392 0.0003929172992204148 -0.00011996734497737175 0.0003929172992204148 -0.00011996734497737175
 0.0003929172992204148 -0.00011996734497737175 0.0003929172992204148 -0.00011996734497737175 -0.005493288564616039 0.009281212994905981 0.986308726640036 -0.08736526026655649
 0.0003929172992204148 -0.00011996734497737175 0.0003929172992204148 -0.00011996734497737175 0.986308726640036 -0.08736526026655649 -0.005493288564616038 0.009281212994905981
267.0 -0.004953077125154999 0.008238935352517907 0.9881999702939281 -0.07818184654899572 0.0003942600363610975 -0.00012085764637056273 0.0003942600363610975 -0.00012085764637056273
 0.988199970293928 -0.07818184654899571 -0.0049530771251549985 0.008238935352517912 0.0003942600363610975 -0.00012085764637056273 0.0003942600363610975 -0.00012085764637056273
 0.0003942600363610975 -0.00012085764637056273 0.0003942600363610975 -0.00012085764637056273 -0.005467532106319836 0.009297620434185949 0.9863205003529704 -0.08772630442768933
 0.0003942600363610975 -0.00012085764637056273 0.0003942600363610975 -0.00012085764637056273 0.9863205003529704 -0.08772630442768933 -0.005467532106319836 0.009297620434185949
268.0 -0.004930580061864707 0.008253562225348428 0.9882136299504994 -0.07850343936758196 0.00039560127565065067 -0.00012175108781664403 0.00039560127565065067 -0.00012175108781664403
 0.9882136299504994 -0.07850343936758196 -0.0049305800618647064 0.00825356222534843 0.00039560127565065067 -0.00012175108781664403 0.00039560127565065067 -0.00012175108781664403
 0.00039560127565065067 -0.00012175108781664403 0.00039560127565065067 -0.00012175108781664403 -0.005441775648023635 0.009314027873465917 0.9863322740659047 -0.08808734858882217
 0.00039560127565065067 -0.00012175108781664403 0.00039560127565065067 -0.00012175108781664403 0.9863322740659047 -0.08808734858882217 -0.005441775648023634 0.009314027873465915
269.0 -0.004908082998574414 0.008268189098178948 0.9882272896070707 -0.07882503218616821 0.0003969410117598648 -0.00012264766708118267 0.0003969410117598648 -0.00012264766708118267
 0.9882272896070708 -0.07882503218616821 -0.004908082998574414 0.00826818909817895 0.0003969410117598648 -0.00012264766708118267 0.0003969410117598648 -0.00012264766708118267
 0.0003969410117598648 -0.00012264766708118267 0.0003969410117598648 -0.00012264766708118267 -0.005416019189727433 0.009330435312745885 0.9863440477788391 -0.08844839274995502
 0.0003969410117598648 -0.00012264766708118267 0.0003969410117598648 -0.00012264766708118267 0.9863440477788391 -0.08844839274995502 -0.005416019189727433 0.009330435312745883
270.0 -0.004885623762955661 0.008282647242935716 0.9882407101720508 -0.07914691471341753 0.0003982792393626521 -0.00012354738192176952 0.0003982792393626521 -0.00012354738192176952
 0.988240710172051 -0.07914691471341755 -0.004885623762955661 0.008282647242935714 0.0003982792393626521 -0.00012354738192176952 0.0003982792393626521 -0.00012354738192176952
 0.0003982792393626521 -0.00012354738192176952 0.0003982792393626521 -0.00012354738192176952 -0.005390304500374166 0.009346650968216005 0.9863555291384587 -0.08880976243069054
 0.0003982792393626521 -0.00012354738192176952 0.0003982792393626521 -0.00012354738192176952 0.9863555291384587 -0.08880976243069054 -0.005390304500374166 0.009346650968216004
271.0 -0.004863252791903829 0.008296711688853722 0.9882535728566512 -0.07946947322754737 0.00039961595313605785 -0.00012445023008802355 0.00039961595313605785 -0.00012445023008802355
 0.9882535728566513 -0.07946947322754738 -0.004863252791903829 0.00829671168885372 0.00039961595313605785 -0.00012445023008802355 0.00039961595313605785 -0.00012445023008802355
 0.00039961595313605785 -0.00012445023008802355 0.00039961595313605785 -0.00012445023008802355 -0.0053646872718877475 0.009362419128129818 0.9863663283403437 -0.08917189165716569
 0.00039961595313605785 -0.00012445023008802355 0.00039961595313605785 -0.00012445023008802355 0.9863663283403435 -0.08917189165716567 -0.0053646872718877475 0.009362419128129814
272.0 -0.0048408818208519975 0.008310776134771729 0.9882664355412515 -0.0797920317416772 0.00040095114776027133 -0.00012535620932159592 0.00040095114776027133 -0.00012535620932159592
 0.9882664355412516 -0.07979203174167722 -0.0048408818208519975 0.008310776134771727 0.00040095114776027133 -0.00012535620932159592 0.00040095114776027133 -0.00012535620932159592
 0.00040095114776027133 -0.00012535620932159592 0.00040095114776027133 -0.00012535620932159592 -0.005339070043401329 0.009378187288043629 0.9863771275422286 -0.08953402088364082
 0.00040095114776027133 -0.00012535620932159592 0.00040095114776027133 -0.00012535620932159592 0.9863771275422285 -0.0895340208836408 -0.005339070043401329 0.009378187288043627
273.0 -0.004818510849800166 0.008324840580689738 0.9882792982258518 -0.08011459025580704 0.0004022848179186373 -0.0001262653173561744 0.0004022848179186373 -0.0001262653173561744
 0.9882792982258519 -0.08011459025580706 -0.004818510849800166 0.008324840580689734 0.0004022848179186373 -0.0001262653173561744 0.0004022848179186373 -0.0001262653173561744
 0.0004022848179186373 -0.0001262653173561744 0.0004022848179186373 -0.0001262653173561744 -0.0053134528149149105 0.009393955447957441 0.9863879267441135 -0.08989615011011595
 0.0004022848179186373 -0.0001262653173561744 0.0004022848179186373 -0.0001262653173561744 0.9863879267441134 -0.08989615011011594 -0.0053134528149149105 0.00939395544795744
274.0 -0.004796139878748333 0.008338905026607744 0.988292160910452 -0.08043714876993688 0.00040361695829766684 -0.00012717755191748734 0.00040361695829766684 -0.00012717755191748734
 0.9882921609104522 -0.08043714876993689 -0.004796139878748333 0.008338905026607741 0.00040361695829766684 -0.00012717755191748734 0.00040361695829766684 -0.00012717755191748734
 0.00040361695829766684 -0.00012717755191748734 0.00040361695829766684 -0.00012717755191748734 -0.005287835586428492 0.009409723607871253 0.9863987259459984 -0.09025827933659109
 0.00040361695829766684 -0.00012717755191748734 0.00040361695829766684 -0.00012717755191748734 0.9863987259459982 -0.09025827933659109 -0.005287835586428492 0.00940972360787125
275.0 -0.004773824376873019 0.0083527481912026 0.9883046952327901 -0.08076008675712629 0.00040494756358704813 -0.00012809291072330805 0.00040494756358704813 -0.00012809291072330805
 0.9883046952327903 -0.0807600867571263 -0.004773824376873019 0.008352748191202597 0.00040494756358704813 -0.00012809291072330805 0.00040494756358704813 -0.00012809291072330805
 0.00040494756358704813 -0.00012809291072330805 0.00040494756358704813 -0.00012809291072330805 -0.00526227980669737 0.009425240237653155 0.9864091244129348 -0.09062083471875963
 0.00040494756358704813 -0.00012809291072330805 0.00040494756358704813 -0.00012809291072330805 0.9864091244129346 -0.09062083471875962 -0.00526227980669737 0.009425240237653152
276.0 -0.00475159207876248 0.00836625943381273 0.9883167370117348 -0.08108359395390505 0.00040627662847965873 -0.00012901139148345904 0.00040627662847965873 -0.00012901139148345904
 0.988316737011735 -0.08108359395390505 -0.00475159207876248 0.008366259433812728 0.00040627662847965873 -0.00012901139148345904 0.00040627662847965873 -0.00012901139148345904
 0.00040627662847965873 -0.00012901139148345904 0.00040627662847965873 -0.00012901139148345904 -0.0052368162000991925 0.009440379572237192 0.9864189217774484 -0.0909840293344683
 0.00040627662847965873 -0.00012901139148345904 0.00040627662847965873 -0.00012901139148345904 0.9864189217774482 -0.09098402933446828 -0.0052368162000991925 0.00944037957223719
277.0 -0.004729359780651941 0.00837977067642286 0.9883287787906795 -0.0814071011506838 0.0004076041476715756 -0.00012993299189981635 0.0004076041476715756 -0.00012993299189981635
 0.9883287787906796 -0.08140710115068381 -0.004729359780651941 0.008379770676422859 0.0004076041476715756 -0.00012993299189981635 0.0004076041476715756 -0.00012993299189981635
 0.0004076041476715756 -0.00012993299189981635 0.0004076041476715756 -0.00012993299189981635 -0.005211352593501014 0.009455518906821229 0.986428719141962 -0.09134722395017696
 0.0004076041476715756 -0.00012993299189981635 0.0004076041476715756 -0.00012993299189981635 0.9864287191419617 -0.09134722395017694 -0.005211352593501014 0.00945551890682123
278.0 -0.004707127482541403 0.00839328191903299 0.9883408205696241 -0.08173060834746255 0.00040893011586208653 -0.00013085770966631376 0.00040893011586208653 -0.00013085770966631376
 0.9883408205696241 -0.08173060834746257 -0.004707127482541403 0.008393281919032988 0.00040893011586208653 -0.00013085770966631376 0.00040893011586208653 -0.00013085770966631376
 0.00040893011586208653 -0.00013085770966631376 0.00040893011586208653 -0.00013085770966631376 -0.005185888986902836 0.009470658241405265 0.9864385165064755 -0.09171041856588562
 0.00040893011586208653 -0.00013085770966631376 0.00040893011586208653 -0.00013085770966631376 0.9864385165064753 -0.09171041856588559 -0.005185888986902836 0.009470658241405269
279.0 -0.0046848951844308635 0.008406793161643118 0.9883528623485688 -0.08205411554424132 0.0004102545277537016 -0.0001317855424689471 0.0004102545277537016 -0.0001317855424689471
 0.9883528623485688 -0.08205411554424132 -0.0046848951844308635 0.008406793161643118 0.0004102545277537016 -0.0001317855424689471 0.0004102545277537016 -0.0001317855424689471
 0.0004102545277537016 -0.0001317855424689471 0.0004102545277537016 -0.0001317855424689471 -0.005160425380304658 0.009485797575989302 0.9864483138709891 -0.09207361318159428
 0.0004102545277537016 -0.0001317855424689471 0.0004102545277537016 -0.0001317855424689471 0.9864483138709889 -0.09207361318159425 -0.005160425380304658 0.009485797575989307
280.0 -0.004662738158163019 0.008420032970496594 0.9883644793976762 -0.08237808367076938 0.0004115773780521638 -0.00013271648798577864 0.0004115773780521638 -0.00013271648798577864
 0.9883644793976762 -0.08237808367076938 -0.004662738158163019 0.008420032970496594 0.0004115773780521638 -0.00013271648798577864 0.0004115773780521638 -0.00013271648798577864
 0.0004115773780521638 -0.00013271648798577864 0.0004115773780521638 -0.00013271648798577864 -0.005135045378242209 0.009500628345687706 0.9864575941221817 -0.09243732510923587
 0.0004115773780521638 -0.00013271648798577864 0.0004115773780521638 -0.00013271648798577864 0.9864575941221815 -0.09243732510923584 -0.005135045378242209 0.00950062834568771
281.0 -0.004640656403737869 0.008433001345593414 0.9883756717169466 -0.08270251272704672 0.00041289866146646036 -0.00013365054388694129 0.00041289866146646036 -0.00013365054388694129
 0.9883756717169466 -0.08270251272704672 -0.004640656403737869 0.008433001345593414 0.00041289866146646036 -0.00013365054388694129 0.00041289866146646036 -0.00013365054388694129
 0.00041289866146646036 -0.00013365054388694129 0.00041289866146646036 -0.00013365054388694129 -0.005109748980715488 0.009515150550500477 0.9864663572600532 -0.09280155434881038
 0.00041289866146646036 -0.00013365054388694129 0.00041289866146646036 -0.00013365054388694129 0.9864663572600532 -0.09280155434881036 -0.005109748980715488 0.009515150550500479
282.0 -0.004618574649312718 0.008445969720690233 0.988386864036217 -0.08302694178332408 0.00041421837270883395 -0.00013458770783464312 0.00041421837270883395 -0.00013458770783464312
 0.988386864036217 -0.08302694178332408 -0.004618574649312718 0.008445969720690236 0.00041421837270883395 -0.00013458770783464312 0.00041421837270883395 -0.00013458770783464312
 0.00041421837270883395 -0.00013458770783464312 0.00041421837270883395 -0.00013458770783464312 -0.005084452583188768 0.009529672755313245 0.9864751203979247 -0.09316578358838488
 0.00041421837270883395 -0.00013458770783464312 0.00041421837270883395 -0.00013458770783464312 0.9864751203979247 -0.09316578358838487 -0.005084452583188768 0.009529672755313245
283.0 -0.0045964928948875675 0.008458938095787053 0.9883980563554874 -0.08335137083960142 0.00041553650649479363 -0.00013552797748317167 0.00041553650649479363 -0.00013552797748317167
 0.9883980563554874 -0.08335137083960142 -0.0045964928948875675 0.008458938095787056 0.00041553650649479363 -0.00013552797748317167 0.00041553650649479363 -0.00013552797748317167
 0.00041553650649479363 -0.00013552797748317167 0.00041553650649479363 -0.00013552797748317167 -0.005059156185662047 0.009544194960126016 0.9864838835357962 -0.09353001282795939
 0.00041553650649479363 -0.00013552797748317167 0.00041553650649479363 -0.00013552797748317167 0.9864838835357964 -0.09353001282795939 -0.005059156185662047 0.009544194960126014
284.0 -0.0045744111404624165 0.008471906470883873 0.9884092486747578 -0.08367579989587877 0.00041685305754312593 -0.00013647135047889814 0.00041685305754312593 -0.00013647135047889814
 0.9884092486747578 -0.08367579989587877 -0.0045744111404624165 0.008471906470883877 0.00041685305754312593 -0.00013647135047889814 0.00041685305754312593 -0.00013647135047889814
 0.00041685305754312593 -0.00013647135047889814 0.00041685305754312593 -0.00013647135047889814 -0.005033859788135326 0.009558717164938786 0.9864926466736678 -0.0938942420675339
 0.00041685305754312593 -0.00013647135047889814 0.00041685305754312593 -0.00013647135047889814 0.986492646673668 -0.09389424206753391 -0.005033859788135326 0.009558717164938781
285.0 -0.004552426599874673 0.00848455490184405 0.9884199163939824 -0.08400077327993337 0.00041816802057590585 -0.00013741782446028217 0.00041816802057590585 -0.00013741782446028217
 0.9884199163939824 -0.08400077327993337 -0.004552426599874673 0.008484554901844053 0.00041816802057590585 -0.00013741782446028217 0.00041816802057590585 -0.00013741782446028217
 0.00041816802057590585 -0.00013741782446028217 0.00041816802057590585 -0.00013741782446028217 -0.005008671600069789 0.009572875644921456 0.9865007722441109 -0.09425908183031917
 0.00041816802057590585 -0.00013741782446028217 0.00041816802057590585 -0.00013741782446028217 0.9865007722441113 -0.09425908183031918 -0.005008671600069789 0.009572875644921453
286.0 -0.004530506868511867 0.00849699003671313 0.9884302343798431 -0.08432610954917279 0.00041948139031850823 -0.00013836739705787578 0.00041948139031850823 -0.00013836739705787578
 0.9884302343798432 -0.0843261095491728 -0.004530506868511867 0.008496990036713132 0.00041948139031850823 -0.00013836739705787578 0.00041948139031850823 -0.00013836739705787578
 0.00041948139031850823 -0.00013836739705787578 0.00041948139031850823 -0.00013836739705787578 -0.004983555551645042 0.00958679164168406 0.986508472769602 -0.09462432860857828
 0.00041948139031850823 -0.00013836739705787578 0.00041948139031850823 -0.00013836739705787578 0.9865084727696022 -0.09462432860857829 -0.004983555551645042 0.009586791641684059
287.0 -0.004508587137149061 0.00850942517158221 0.9884405523657039 -0.08465144581841222 0.00042079316149961846 -0.00013932006589432826 0.00042079316149961846 -0.00013932006589432826
 0.988440552365704 -0.08465144581841223 -0.004508587137149061 0.008509425171582211 0.00042079316149961846 -0.00013932006589432826 0.00042079316149961846 -0.00013932006589432826
 0.00042079316149961846 -0.00013932006589432826 0.00042079316149961846 -0.00013932006589432826 -0.004958439503220295 0.009600707638446664 0.986516173295093 -0.0949895753868374
 0.00042079316149961846 -0.00013932006589432826 0.00042079316149961846 -0.00013932006589432826 0.9865161732950931 -0.0949895753868374 -0.004958439503220295 0.009600707638446667
288.0 -0.004486667405786255 0.00852186030645129 0.9884508703515648 -0.08497678208765164 0.00042210332885124393 -0.00014027582858439018 0.00042210332885124393 -0.00014027582858439018
 0.9884508703515649 -0.08497678208765166 -0.004486667405786255 0.00852186030645129 0.00042210332885124393 -0.00014027582858439018 0.00042210332885124393 -0.00014027582858439018
 0.00042210332885124393 -0.00014027582858439018 0.00042210332885124393 -0.00014027582858439018 -0.0049333234547955475 0.009614623635209268 0.986523873820584 -0.09535482216509653
 0.00042210332885124393 -0.00014027582858439018 0.00042210332885124393 -0.00014027582858439018 0.9865238738205842 -0.09535482216509653 -0.0049333234547955475 0.009614623635209273
289.0 -0.004464747674423449 0.008534295441320372 0.9884611883374256 -0.08530211835689105 0.0004234118871087245 -0.00014123468273491817 0.0004234118871087245 -0.00014123468273491817
 0.9884611883374257 -0.08530211835689108 -0.004464747674423449 0.00853429544132037 0.0004234118871087245 -0.00014123468273491817 0.0004234118871087245 -0.00014123468273491817
 0.0004234118871087245 -0.00014123468273491817 0.0004234118871087245 -0.00014123468273491817 -0.0049082074063708 0.009628539631971873 0.9865315743460751 -0.09572006894335564
 0.0004234118871087245 -0.00014123468273491817 0.0004234118871087245 -0.00014123468273491817 0.9865315743460751 -0.09572006894335564 -0.004908207406370799 0.009628539631971881
290.0 -0.004442948547207862 0.008546363690786684 0.9884708821474549 -0.08562807208325005 0.0004247188310107442 -0.00014219662594487927 0.0004247188310107442 -0.00014219662594487927
 0.9884708821474549 -0.08562807208325007 -0.004442948547207862 0.008546363690786684 0.0004247188310107442 -0.00014219662594487927 0.0004247188310107442 -0.00014219662594487927
 0.0004247188310107442 -0.00014219662594487927 0.0004247188310107442 -0.00014219662594487927 -0.004883225862396018 0.009642038528866217 0.9865385171816323 -0.09608600784661349
 0.0004247188310107442 -0.00014219662594487927 0.0004247188310107442 -0.00014219662594487927 0.9865385171816324 -0.09608600784661349 -0.004883225862396018 0.009642038528866224
291.0 -0.00442120110748394 0.00855827470365181 0.9884803084535564 -0.08595429043408885 0.000426024155299342 -0.00014316165580535535 0.000426024155299342 -0.00014316165580535535
 0.9884803084535564 -0.08595429043408886 -0.00442120110748394 0.008558274703651813 0.000426024155299342 -0.00014316165580535535 0.000426024155299342 -0.00014316165580535535
 0.000426024155299342 -0.00014316165580535535 0.000426024155299342 -0.00014316165580535535 -0.004858301963185507 0.009655358668674166 0.9865451352929323 -0.0964522433748708
 0.000426024155299342 -0.00014316165580535535 0.000426024155299342 -0.00014316165580535535 0.9865451352929324 -0.09645224337487081 -0.004858301963185507 0.00965535866867417
292.0 -0.004399453667760018 0.008570185716516937 0.9884897347596578 -0.08628050878492766 0.00042732785471992274 -0.00014412976989954774 0.00042732785471992274 -0.00014412976989954774
 0.9884897347596577 -0.08628050878492767 -0.004399453667760017 0.00857018571651694 0.00042732785471992274 -0.00014412976989954774 0.00042732785471992274 -0.00014412976989954774
 0.00042732785471992274 -0.00014412976989954774 0.00042732785471992274 -0.00014412976989954774 -0.004833378063974995 0.009668678808482113 0.9865517534042323 -0.0968184789031281
 0.00042732785471992274 -0.00014412976989954774 0.00042732785471992274 -0.00014412976989954774 0.9865517534042324 -0.09681847890312811 -0.004833378063974995 0.009668678808482115
293.0 -0.0043777062280360955 0.008582096729382064 0.9884991610657593 -0.08660672713576646 0.00042862992402126817 -0.00014510096580278153 0.00042862992402126817 -0.00014510096580278153
 0.9884991610657592 -0.08660672713576646 -0.004377706228036095 0.00858209672938207 0.00042862992402126817 -0.00014510096580278153 0.00042862992402126817 -0.00014510096580278153
 0.00042862992402126817 -0.00014510096580278153 0.00042862992402126817 -0.00014510096580278153 -0.0048084541647644835 0.00968199894829006 0.9865583715155323 -0.09718471443138542
 0.00042862992402126817 -0.00014510096580278153 0.00042862992402126817 -0.00014510096580278153 0.9865583715155325 -0.09718471443138543 -0.0048084541647644835 0.009681998948290058
294.0 -0.004355958788312173 0.008594007742247192 0.9885085873718609 -0.08693294548660527 0.00042993035795554815 -0.00014607524108251036 0.00042993035795554815 -0.00014607524108251036
 0.9885085873718606 -0.08693294548660525 -0.004355958788312172 0.008594007742247198 0.00042993035795554815 -0.00014607524108251036 0.00042993035795554815 -0.00014607524108251036
 0.00042993035795554815 -0.00014607524108251036 0.00042993035795554815 -0.00014607524108251036 -0.004783530265553972 0.009695319088098009 0.9865649896268323 -0.09755094995964272
 0.00042993035795554815 -0.00014607524108251036 0.00042993035795554815 -0.00014607524108251036 0.9865649896268325 -0.09755094995964275 -0.004783530265553972 0.009695319088098004
295.0 -0.004334357352300491 0.008605508262548101 0.9885172806794278 -0.08725984559464943 0.00043122915127833165 -0.0001470525932983208 0.00043122915127833165 -0.0001470525932983208
 0.9885172806794277 -0.08725984559464942 -0.00433435735230049 0.00860550826254811 0.00043122915127833165 -0.0001470525932983208 0.00043122915127833165 -0.0001470525932983208
 0.00043122915127833165 -0.0001470525932983208 0.00043122915127833165 -0.0001470525932983208 -0.004758769454666848 0.00970817251832415 0.9865707195400333 -0.09791794910177681
 0.00043122915127833165 -0.0001470525932983208 0.00043122915127833165 -0.0001470525932983208 0.9865707195400335 -0.09791794910177683 -0.004758769454666849 0.009708172518324147
296.0 -0.00431279241721687 0.008616906159707957 0.9885257907373612 -0.08758691614199493 0.0004325262987485977 -0.000148033020001937 0.0004325262987485977 -0.000148033020001937
 0.9885257907373611 -0.08758691614199493 -0.004312792417216868 0.008616906159707963 0.0004325262987485977 -0.000148033020001937 0.0004325262987485977 -0.000148033020001937
 0.0004325262987485977 -0.000148033020001937 0.0004325262987485977 -0.000148033020001937 -0.004734049415860571 0.00972090927115484 0.9865762274037096 -0.09828513914738009
 0.0004325262987485977 -0.000148033020001937 0.0004325262987485977 -0.000148033020001937 0.9865762274037098 -0.09828513914738012 -0.004734049415860572 0.009720909271154838
297.0 -0.004291227482133247 0.008628304056867814 0.9885343007952946 -0.08791398668934043 0.00043382179512874635 -0.0001490165187372251 0.00043382179512874635 -0.0001490165187372251
 0.9885343007952946 -0.08791398668934043 -0.004291227482133246 0.008628304056867818 0.00043382179512874635 -0.0001490165187372251 0.00043382179512874635 -0.0001490165187372251
 0.00043382179512874635 -0.0001490165187372251 0.00043382179512874635 -0.0001490165187372251 -0.004709329377054295 0.009733646023985531 0.9865817352673859 -0.09865232919298338
 0.00043382179512874635 -0.0001490165187372251 0.00043382179512874635 -0.0001490165187372251 0.986581735267386 -0.09865232919298339 -0.004709329377054295 0.00973364602398553
298.0 -0.004269662547049625 0.00863970195402767 0.9885428108532279 -0.08824105723668593 0.00043511563518460947 -0.00015000308704019795 0.00043511563518460947 -0.00015000308704019795
 0.9885428108532279 -0.08824105723668593 -0.004269662547049625 0.008639701954027672 0.00043511563518460947 -0.00015000308704019795 0.00043511563518460947 -0.00015000308704019795
 0.00043511563518460947 -0.00015000308704019795 0.00043511563518460947 -0.00015000308704019795 -0.0046846093382480174 0.00974638277681622 0.9865872431310623 -0.09901951923858665
 0.00043511563518460947 -0.00015000308704019795 0.00043511563518460947 -0.00015000308704019795 0.9865872431310623 -0.09901951923858666 -0.004684609338248018 0.00974638277681622
299.0 -0.004248097611966003 0.008651099851187527 0.9885513209111613 -0.08856812778403142 0.00043640781368546247 -0.00015099272243901973 0.00043640781368546247 -0.00015099272243901973
 0.9885513209111614 -0.08856812778403143 -0.004248097611966003 0.008651099851187527 0.00043640781368546247 -0.00015099272243901973 0.00043640781368546247 -0.00015099272243901973
 0.00043640781368546247 -0.00015099272243901973 0.00043640781368546247 -0.00015099272243901973 -0.004659889299441741 0.009759119529646912 0.9865927509947385 -0.09938670928418994
 0.00043640781368546247 -0.00015099272243901973 0.00043640781368546247 -0.00015099272243901973 0.9865927509947385 -0.09938670928418994 -0.004659889299441741 0.009759119529646913
300.0 -0.004226705783012697 0.008662044599133266 0.9885589857191374 -0.0888959537925449 0.00043769832540403443 -0.00015198542245401048 0.00043769832540403443 -0.00015198542245401048
 0.9885589857191375 -0.08889595379254492 -0.004226705783012697 0.008662044599133268 0.00043769832540403443 -0.00015198542245401048 0.00043769832540403443 -0.00015198542245401048
 0.00043769832540403443 -0.00015198542245401048 0.00043769832540403443 -0.00015198542245401048 -0.004635362886613134 0.009771341071923704 0.9865972360790279 -0.09975474484374354
 0.00043769832540403443 -0.00015198542245401048 0.00043769832540403443 -0.00015198542245401048 0.9865972360790279 -0.09975474484374355 -0.004635362886613134 0.009771341071923702
301.0 -0.00420533318807387 0.008672938997166327 0.9885665566104515 -0.08922386374118817 0.0004389871651165198 -0.00015298118459765084 0.0004389871651165198 -0.00015298118459765084
 0.9885665566104517 -0.08922386374118818 -0.00420533318807387 0.008672938997166329 0.0004389871651165198 -0.00015298118459765084 0.0004389871651165198 -0.00015298118459765084
 0.0004389871651165198 -0.00015298118459765084 0.0004389871651165198 -0.00015298118459765084 -0.004610857987782046 0.009783505368583396 0.9866016075211632 -0.10012287434929162
 0.0004389871651165198 -0.00015298118459765084 0.0004389871651165198 -0.00015298118459765084 0.9866016075211633 -0.10012287434929164 -0.004610857987782047 0.009783505368583394
302.0 -0.004183960593135044 0.008683833395199386 0.9885741275017655 -0.08955177368983142 0.00044027432760258866 -0.00015398000637458645 0.00044027432760258866 -0.00015398000637458645
 0.9885741275017658 -0.08955177368983143 -0.004183960593135044 0.008683833395199389 0.00044027432760258866 -0.00015398000637458645 0.00044027432760258866 -0.00015398000637458645
 0.00044027432760258866 -0.00015398000637458645 0.00044027432760258866 -0.00015398000637458645 -0.004586353088950957 0.009795669665243088 0.9866059789632985 -0.10049100385483971
 0.00044027432760258866 -0.00015398000637458645 0.00044027432760258866 -0.00015398000637458645 0.9866059789632987 -0.10049100385483972 -0.004586353088950958 0.009795669665243084
303.0 -0.004162587998196217 0.008694727793232446 0.9885816983930796 -0.08987968363847468 0.00044155980764539843 -0.00015498188528163302 0.00044155980764539843 -0.00015498188528163302
 0.98858169839308 -0.08987968363847469 -0.004162587998196217 0.00869472779323245 0.00044155980764539843 -0.00015498188528163302 0.00044155980764539843 -0.00015498188528163302
 0.00044155980764539843 -0.00015498188528163302 0.00044155980764539843 -0.00015498188528163302 -0.004561848190119869 0.009807833961902782 0.9866103504054339 -0.10085913336038779
 0.00044155980764539843 -0.00015498188528163302 0.00044155980764539843 -0.00015498188528163302 0.9866103504054341 -0.10085913336038782 -0.004561848190119871 0.009807833961902775
304.0 -0.004141215403257391 0.008705622191265505 0.9885892692843937 -0.09020759358711793 0.00044284360003160427 -0.00015598681880778058 0.00044284360003160427 -0.00015598681880778058
 0.9885892692843941 -0.09020759358711794 -0.004141215403257391 0.00870562219126551 0.00044284360003160427 -0.00015598681880778058 0.00044284360003160427 -0.00015598681880778058
 0.00044284360003160427 -0.00015598681880778058 0.00044284360003160427 -0.00015598681880778058 -0.0045373432912887805 0.009819998258562473 0.9866147218475692 -0.10122726286593588
 0.00044284360003160427 -0.00015598681880778058 0.00044284360003160427 -0.00015598681880778058 0.9866147218475695 -0.1012272628659359 -0.004537343291288782 0.009819998258562465
305.0 -0.004120044188316194 0.008716022974407562 0.9885958853666238 -0.0905363194495477 0.00044412569955137036 -0.00015699480443419846 0.00044412569955137036 -0.00015699480443419846
 0.9885958853666239 -0.0905363194495477 -0.004120044188316194 0.008716022974407567 0.00044412569955137036 -0.00015699480443419846 0.00044412569955137036 -0.00015699480443419846
 0.00044412569955137036 -0.00015699480443419846 0.00044412569955137036 -0.00015699480443419846 -0.004513063927470983 0.009831601334094076 0.9866179390047628 -0.1015963048411905
 0.00044412569955137036 -0.00015699480443419846 0.00044412569955137036 -0.00015699480443419846 0.9866179390047631 -0.10159630484119053 -0.004513063927470985 0.009831601334094069
306.0 -0.004098872973374997 0.008726423757549619 0.9886025014488538 -0.09086504531197746 0.0004454061009983808 -0.0001580058396342399 0.0004454061009983808 -0.0001580058396342399
 0.9886025014488538 -0.09086504531197745 -0.004098872973374997 0.008726423757549623 0.0004454061009983808 -0.0001580058396342399 0.0004454061009983808 -0.0001580058396342399
 0.0004454061009983808 -0.0001580058396342399 0.0004454061009983808 -0.0001580058396342399 -0.004488784563653186 0.009843204409625678 0.9866211561619564 -0.10196534681644513
 0.0004454061009983808 -0.0001580058396342399 0.0004454061009983808 -0.0001580058396342399 0.9866211561619567 -0.10196534681644515 -0.004488784563653187 0.009843204409625675
307.0 -0.0040777017584338 0.008736824540691676 0.9886091175310838 -0.09119377117440723 0.00044668479916985034 -0.0001590199218734466 0.00044668479916985034 -0.0001590199218734466
 0.9886091175310837 -0.0911937711744072 -0.0040777017584338 0.00873682454069168 0.00044668479916985034 -0.0001590199218734466 0.00044668479916985034 -0.0001590199218734466
 0.00044668479916985034 -0.0001590199218734466 0.00044668479916985034 -0.0001590199218734466 -0.004464505199835388 0.009854807485157279 0.9866243733191501 -0.10233438879169976
 0.00044668479916985034 -0.0001590199218734466 0.00044668479916985034 -0.0001590199218734466 0.9866243733191503 -0.10233438879169977 -0.004464505199835389 0.009854807485157279
308.0 -0.0040565305434926025 0.008747225323833733 0.9886157336133139 -0.09152249703683699 0.0004479617888665357 -0.00016003704860955394 0.0004479617888665357 -0.00016003704860955394
 0.9886157336133136 -0.09152249703683696 -0.0040565305434926025 0.008747225323833737 0.0004479617888665357 -0.00016003704860955394 0.0004479617888665357 -0.00016003704860955394
 0.0004479617888665357 -0.00016003704860955394 0.0004479617888665357 -0.00016003704860955394 -0.004440225836017591 0.009866410560688882 0.9866275904763439 -0.10270343076695439
 0.0004479617888665357 -0.00016003704860955394 0.0004479617888665357 -0.00016003704860955394 0.9866275904763439 -0.1027034307669544 -0.004440225836017591 0.009866410560688885
309.0 -0.004035380296337274 0.008757577767129847 0.9886222522664511 -0.09185130152409203 0.0004492370648927461 -0.000161057217292495 0.0004492370648927461 -0.000161057217292495
 0.9886222522664506 -0.09185130152409199 -0.004035380296337274 0.008757577767129848 0.0004492370648927461 -0.000161057217292495 0.0004492370648927461 -0.000161057217292495
 0.0004492370648927461 -0.000161057217292495 0.0004492370648927461 -0.000161057217292495 -0.004415969981444577 0.009877958674266569 0.9866306899974702 -0.10307256058975836
 0.0004492370648927461 -0.000161057217292495 0.0004492370648927461 -0.000161057217292495 0.9866306899974702 -0.10307256058975836 -0.004415969981444577 0.009877958674266574
310.0 -0.00401441875925476 0.00876749515181245 0.9886278940577528 -0.09218081363477458 0.00045051062205635456 -0.00016208042536440615 0.00045051062205635456 -0.00016208042536440615
 0.9886278940577523 -0.09218081363477455 -0.00401441875925476 0.008767495151812452 0.00045051062205635456 -0.00016208042536440615 0.00045051062205635456 -0.00016208042536440615
 0.00045051062205635456 -0.00016208042536440615 0.00045051062205635456 -0.00016208042536440615 -0.004391925710074615 0.009889012130259011 0.9866327307939905 -0.10344248104050645
 0.00045051062205635456 -0.00016208042536440615 0.00045051062205635456 -0.00016208042536440615 0.9866327307939905 -0.10344248104050645 -0.004391925710074615 0.009889012130259016
311.0 -0.003993457222172247 0.008777412536495053 0.9886335358490543 -0.09251032574545713 0.00045178245516880853 -0.00016310667025963102 0.00045178245516880853 -0.00016310667025963102
 0.988633535849054 -0.0925103257454571 -0.003993457222172247 0.008777412536495057 0.00045178245516880853 -0.00016310667025963102 0.00045178245516880853 -0.00016310667025963102
 0.00045178245516880853 -0.00016310667025963102 0.00045178245516880853 -0.00016310667025963102 -0.004367881438704654 0.009900065586251455 0.9866347715905108 -0.10381240149125452
 0.00045178245516880853 -0.00016310667025963102 0.00045178245516880853 -0.00016310667025963102 0.9866347715905109 -0.10381240149125454 -0.004367881438704654 0.00990006558625146
312.0 -0.0039724956850897344 0.008787329921177657 0.988639177640356 -0.09283983785613968 0.00045305255904514103 -0.00016413594940472594 0.00045305255904514103 -0.00016413594940472594
 0.9886391776403557 -0.09283983785613965 -0.003972495685089734 0.008787329921177662 0.00045305255904514103 -0.00016413594940472594 0.00045305255904514103 -0.00016413594940472594
 0.00045305255904514103 -0.00016413594940472594 0.00045305255904514103 -0.00016413594940472594 -0.004343837167334693 0.009911119042243899 0.9866368123870312 -0.10418232194200261
 0.00045305255904514103 -0.00016413594940472594 0.00045305255904514103 -0.00016413594940472594 0.9866368123870313 -0.10418232194200261 -0.004343837167334692 0.009911119042243904
313.0 -0.0039515341480072215 0.00879724730586026 0.9886448194316577 -0.09316934996682223 0.0004543209285039814 -0.00016516826021846436 0.0004543209285039814 -0.00016516826021846436
 0.9886448194316574 -0.09316934996682222 -0.003951534148007221 0.008797247305860267 0.0004543209285039814 -0.00016516826021846436 0.0004543209285039814 -0.00016516826021846436
 0.0004543209285039814 -0.00016516826021846436 0.0004543209285039814 -0.00016516826021846436 -0.004319792895964731 0.009922172498236343 0.9866388531835515 -0.10455224239275068
 0.0004543209285039814 -0.00016516826021846436 0.0004543209285039814 -0.00016516826021846436 0.9866388531835517 -0.1045522423927507 -0.00431979289596473 0.009922172498236348
314.0 -0.0039306162306459716 0.008807070128650906 0.9886502622241903 -0.09349901534048476 0.00045558755836756613 -0.00016620360011184183 0.00045558755836756613 -0.00016620360011184183
 0.9886502622241902 -0.09349901534048476 -0.003930616230645971 0.008807070128650913 0.00045558755836756613 -0.00016620360011184183 0.00045558755836756613 -0.00016620360011184183
 0.00045558755836756613 -0.00016620360011184183 0.00045558755836756613 -0.00016620360011184183 -0.004295797577401078 0.009933118437593407 0.9866406539972632 -0.1049223339169883
 0.00045558755836756613 -0.00016620360011184183 0.00045558755836756613 -0.00016620360011184183 0.9866406539972634 -0.10492233391698831 -0.004295797577401077 0.009933118437593412
315.0 -0.003909872792169777 0.00881651470387372 0.9886549090216469 -0.09382929376606723 0.0004568524434617504 -0.0001672419664880809 0.0004568524434617504 -0.0001672419664880809
 0.9886549090216467 -0.09382929376606722 -0.003909872792169776 0.008816514703873726 0.0004568524434617504 -0.0001672419664880809 0.0004568524434617504 -0.0001672419664880809
 0.0004568524434617504 -0.0001672419664880809 0.0004568524434617504 -0.0001672419664880809 -0.004271998070062658 0.009943634310408959 0.9866414948797403 -0.10529310973518408
 0.0004568524434617504 -0.0001672419664880809 0.0004568524434617504 -0.0001672419664880809 0.9866414948797404 -0.10529310973518409 -0.004271998070062657 0.009943634310408962
316.0 -0.0038891293536935812 0.008825959279096535 0.9886595558191034 -0.09415957219164969 0.00045811557861601777 -0.00016828335674263562 0.00045811557861601777 -0.00016828335674263562
 0.9886595558191033 -0.09415957219164969 -0.003889129353693581 0.00882595927909654 0.00045811557861601777 -0.00016828335674263562 0.00045811557861601777 -0.00016828335674263562
 0.00045811557861601777 -0.00016828335674263562 0.00045811557861601777 -0.00016828335674263562 -0.004248198562724239 0.00995415018322451 0.9866423357622173 -0.10566388555337985
 0.00045811557861601777 -0.00016828335674263562 0.00045811557861601777 -0.00016828335674263562 0.9866423357622175 -0.10566388555337987 -0.004248198562724238 0.009954150183224514
317.0 -0.003868385915217386 0.008835403854319352 0.9886642026165599 -0.09448985061723217 0.0004593769586634921 -0.00016932776826319697 0.0004593769586634921 -0.00016932776826319697
 0.9886642026165597 -0.09448985061723215 -0.003868385915217386 0.008835403854319353 0.0004593769586634921 -0.00016932776826319697 0.0004593769586634921 -0.00016932776826319697
 0.0004593769586634921 -0.00016932776826319697 0.0004593769586634921 -0.00016932776826319697 -0.0042243990553858185 0.00996466605604006 0.9866431766446944 -0.10603466137157565
 0.0004593769586634921 -0.00016932776826319697 0.0004593769586634921 -0.00016932776826319697 0.9866431766446945 -0.10603466137157565 -0.0042243990553858185 0.009964666056040064
318.0 -0.003847642476741191 0.008844848429542166 0.9886688494140163 -0.09482012904281463 0.00046063657844094824 -0.00017037519842969713 0.00046063657844094824 -0.00017037519842969713
 0.9886688494140163 -0.09482012904281463 -0.003847642476741191 0.008844848429542166 0.00046063657844094824 -0.00017037519842969713 0.00046063657844094824 -0.00017037519842969713
 0.00046063657844094824 -0.00017037519842969713 0.00046063657844094824 -0.00017037519842969713 -0.004200599548047399 0.009975181928855612 0.9866440175271715 -0.10640543718977143
 0.00046063657844094824 -0.00017037519842969713 0.00046063657844094824 -0.00017037519842969713 0.9866440175271716 -0.10640543718977143 -0.004200599548047399 0.009975181928855614
319.0 -0.0038269666021851344 0.00885415395818512 0.9886731939933653 -0.0951506291939248 0.00046189443278882265 -0.000171425644614315 0.00046189443278882265 -0.000171425644614315
 0.9886731939933652 -0.0951506291939248 -0.0038269666021851344 0.00885415395818512 0.00046189443278882265 -0.000171425644614315 0.00046189443278882265 -0.000171425644614315
 0.00046189443278882265 -0.000171425644614315 0.00046189443278882265 -0.000171425644614315 -0.00417687593874042 0.00998553971059256 0.9866444941996955 -0.10677646025485715
 0.00046189443278882265 -0.000171425644614315 0.00046189443278882265 -0.000171425644614315 0.9866444941996956 -0.10677646025485715 -0.00417687593874042 0.00998553971059256
320.0 -0.0038064483767760687 0.008863135044808398 0.9886768333971298 -0.0954816467045996 0.00046315051655122417 -0.00017247910418148049 0.00046315051655122417 -0.00017247910418148049
 0.9886768333971296 -0.0954816467045996 -0.0038064483767760683 0.0088631350448084 0.00046315051655122417 -0.00017247910418148049 0.00046315051655122417 -0.00017247910418148049
 0.00046315051655122417 -0.00017247910418148049 0.00046315051655122417 -0.00017247910418148049 -0.0041533294248401334 0.0099955286131461 0.986644121048996 -0.10714806022935275
 0.00046315051655122417 -0.00017247910418148049 0.00046315051655122417 -0.00017247910418148049 0.9866441210489961 -0.10714806022935275 -0.0041533294248401334 0.0099955286131461
321.0 -0.0037859301513670026 0.008872116131431676 0.9886804728008942 -0.09581266421527442 0.0004644048245759453 -0.0001735355744878798 0.0004644048245759453 -0.0001735355744878798
 0.9886804728008941 -0.0958126642152744 -0.003785930151367002 0.008872116131431679 0.0004644048245759453 -0.0001735355744878798 0.0004644048245759453 -0.0001735355744878798
 0.0004644048245759453 -0.0001735355744878798 0.0004644048245759453 -0.0001735355744878798 -0.004129782910939847 0.01000551751569964 0.9866437478982965 -0.10751966020384836
 0.0004644048245759453 -0.0001735355744878798 0.0004644048245759453 -0.0001735355744878798 0.9866437478982966 -0.10751966020384836 -0.004129782910939847 0.010005517515699638
322.0 -0.0037654119259579364 0.008881097218054955 0.9886841122046588 -0.09614368172594923 0.0004656573517144728 -0.0001745950528824605 0.0004656573517144728 -0.0001745950528824605
 0.9886841122046585 -0.09614368172594921 -0.003765411925957936 0.008881097218054959 0.0004656573517144728 -0.0001745950528824605 0.0004656573517144728 -0.0001745950528824605
 0.0004656573517144728 -0.0001745950528824605 0.0004656573517144728 -0.0001745950528824605 -0.004106236397039561 0.010015506418253179 0.986643374747597 -0.10789126017834395
 0.0004656573517144728 -0.0001745950528824605 0.0004656573517144728 -0.0001745950528824605 0.9866433747475971 -0.10789126017834397 -0.004106236397039561 0.010015506418253176
323.0 -0.0037448937005488702 0.008890078304678233 0.9886877516084233 -0.09647469923662404 0.00046690809282199855 -0.000175657536706436 0.00046690809282199855 -0.000175657536706436
 0.9886877516084229 -0.09647469923662402 -0.00374489370054887 0.008890078304678237 0.00046690809282199855 -0.000175657536706436 0.00046690809282199855 -0.000175657536706436
 0.00046690809282199855 -0.000175657536706436 0.00046690809282199855 -0.000175657536706436 -0.004082689883139274 0.010025495320806719 0.9866430015968974 -0.10826286015283956
 0.00046690809282199855 -0.000175657536706436 0.00046690809282199855 -0.000175657536706436 0.9866430015968976 -0.10826286015283958 -0.004082689883139274 0.010025495320806713
324.0 -0.003724468642486097 0.00889887824241612 0.988690981265851 -0.096806005943801 0.00046815704275743027 -0.00017672302329329098 0.00046815704275743027 -0.00017672302329329098
 0.9886909812658506 -0.09680600594380097 -0.0037244686424860963 0.008898878242416126 0.00046815704275743027 -0.00017672302329329098 0.00046815704275743027 -0.00017672302329329098
 0.00046815704275743027 -0.00017672302329329098 0.00046815704275743027 -0.00017672302329329098 -0.0040592481074825035 0.010035278269274039 0.9866421350791512 -0.10863478227473854
 0.00046815704275743027 -0.00017672302329329098 0.00046815704275743027 -0.00017672302329329098 0.9866421350791513 -0.10863478227473855 -0.0040592481074825035 0.010035278269274034
325.0 -0.0037041833354427636 0.008907406456825924 0.9886935963037736 -0.09713774644573119 0.00046940419638340285 -0.00017779150996878615 0.00046940419638340285 -0.00017779150996878615
 0.9886935963037734 -0.09713774644573116 -0.0037041833354427628 0.00890740645682593 0.00046940419638340285 -0.00017779150996878615 0.00046940419638340285 -0.00017779150996878615
 0.00046940419638340285 -0.00017779150996878615 0.00046940419638340285 -0.00017779150996878615 -0.0040359634391910065 0.01004475228661203 0.9866405285108347 -0.10900718761774258
 0.00046940419638340285 -0.00017779150996878615 0.00046940419638340285 -0.00017779150996878615 0.9866405285108347 -0.10900718761774258 -0.004035963439191006 0.010044752286612028
326.0 -0.0036838980283994296 0.008915934671235727 0.9886962113416964 -0.09746948694766136 0.00047064954856628833 -0.00017886299405096322 0.00047064954856628833 -0.00017886299405096322
 0.988696211341696 -0.09746948694766133 -0.0036838980283994288 0.008915934671235732 0.00047064954856628833 -0.00017886299405096322 0.00047064954856628833 -0.00017886299405096322
 0.00047064954856628833 -0.00017886299405096322 0.00047064954856628833 -0.00017886299405096322 -0.00401267877089951 0.01005422630395002 0.9866389219425182 -0.10937959296074662
 0.00047064954856628833 -0.00017886299405096322 0.00047064954856628833 -0.00017886299405096322 0.9866389219425182 -0.10937959296074662 -0.004012678770899509 0.01005422630395002
327.0 -0.003663612721356096 0.008924462885645532 0.988698826379619 -0.09780122744959155 0.00047189309417620777 -0.00017993747285015004 0.00047189309417620777 -0.00017993747285015004
 0.9886988263796187 -0.09780122744959152 -0.003663612721356095 0.008924462885645537 0.00047189309417620777 -0.00017993747285015004 0.00047189309417620777 -0.00017993747285015004
 0.00047189309417620777 -0.00017993747285015004 0.00047189309417620777 -0.00017993747285015004 -0.003989394102608012 0.010063700321288014 0.9866373153742017 -0.10975199830375065
 0.00047189309417620777 -0.00017993747285015004 0.00047189309417620777 -0.00017993747285015004 0.9866373153742017 -0.10975199830375067 -0.003989394102608011 0.010063700321288015
328.0 -0.003643327414312762 0.008932991100055335 0.9887014414175417 -0.09813296795152172 0.0004731348280870414 -0.00018101494366896565 0.0004731348280870414 -0.00018101494366896565
 0.9887014414175415 -0.0981329679515217 -0.003643327414312761 0.00893299110005534 0.0004731348280870414 -0.00018101494366896565 0.0004731348280870414 -0.00018101494366896565
 0.0004731348280870414 -0.00018101494366896565 0.0004731348280870414 -0.00018101494366896565 -0.003966109434316515 0.010073174338626005 0.9866357088058852 -0.1101244036467547
 0.0004731348280870414 -0.00018101494366896565 0.0004731348280870414 -0.00018101494366896565 0.9866357088058852 -0.1101244036467547 -0.003966109434316513 0.010073174338626008
329.0 -0.003623161719937304 0.008941297627131273 0.9887035390690343 -0.09846505638559662 0.00047437474517643885 -0.00018209540380232498 0.00047437474517643885 -0.00018209540380232498
 0.9887035390690342 -0.09846505638559659 -0.003623161719937303 0.008941297627131278 0.00047437474517643885 -0.00018209540380232498 0.00047437474517643885 -0.00018209540380232498
 0.00047437474517643885 -0.00018209540380232498 0.00047437474517643885 -0.00018209540380232498 -0.003942959342880222 0.010082396324701329 0.9866334796046621 -0.11049719612260807
 0.00047437474517643885 -0.00018209540380232498 0.00047437474517643885 -0.00018209540380232498 0.9866334796046621 -0.11049719612260807 -0.00394295934288022 0.010082396324701334
330.0 -0.003603115638229721 0.008949382466873344 0.988705119334097 -0.09879749275181622 0.0004756128403258315 -0.00018317885053744436 0.0004756128403258315 -0.00018317885053744436
 0.9887051193340969 -0.09879749275181621 -0.00360311563822972 0.008949382466873351 0.0004756128403258315 -0.00018317885053744436 0.0004756128403258315 -0.00018317885053744436
 0.0004756128403258315 -0.00018317885053744436 0.0004756128403258315 -0.00018317885053744436 -0.003919943828299132 0.010091366279513986 0.9866306277705323 -0.11087037573131078
 0.0004756128403258315 -0.00018317885053744436 0.0004756128403258315 -0.00018317885053744436 0.9866306277705322 -0.11087037573131078 -0.003919943828299131 0.01009136627951399
331.0 -0.0035830695565221378 0.008957467306615417 0.9887066995991596 -0.09912992911803582 0.00047684910842044217 -0.00018426528115384643 0.00047684910842044217 -0.00018426528115384643
 0.9887066995991596 -0.09912992911803582 -0.0035830695565221373 0.008957467306615424 0.00047684910842044217 -0.00018426528115384643 0.00047684910842044217 -0.00018426528115384643
 0.00047684910842044217 -0.00018426528115384643 0.00047684910842044217 -0.00018426528115384643 -0.003896928313718043 0.010100336234326643 0.9866277759364027 -0.1112435553400135
 0.00047684910842044217 -0.00018426528115384643 0.00047684910842044217 -0.00018426528115384643 0.9866277759364025 -0.11124355534001348 -0.003896928313718042 0.010100336234326646
332.0 -0.0035630234748145547 0.008965552146357489 0.9887082798642223 -0.09946236548425542 0.000478083544349296 -0.000185354692923365 0.000478083544349296 -0.000185354692923365
 0.9887082798642223 -0.09946236548425544 -0.0035630234748145542 0.008965552146357497 0.000478083544349296 -0.000185354692923365 0.000478083544349296 -0.000185354692923365
 0.000478083544349296 -0.000185354692923365 0.000478083544349296 -0.000185354692923365 -0.0038739127991369534 0.0101093061891393 0.986624924102273 -0.11161673494871621
 0.000478083544349296 -0.000185354692923365 0.000478083544349296 -0.000185354692923365 0.9866249241022728 -0.1116167349487162 -0.003873912799136953 0.010109306189139302
333.0 -0.003542977393106972 0.008973636986099561 0.9887098601292849 -0.09979480185047504 0.0004793161430052314 -0.00018644708311015037 0.0004793161430052314 -0.00018644708311015037
 0.988709860129285 -0.09979480185047504 -0.0035429773931069716 0.00897363698609957 0.0004793161430052314 -0.00018644708311015037 0.0004793161430052314 -0.00018644708311015037
 0.0004793161430052314 -0.00018644708311015037 0.0004793161430052314 -0.00018644708311015037 -0.003850897284555864 0.010118276143951957 0.9866220722681432 -0.11198991455741893
 0.0004793161430052314 -0.00018644708311015037 0.0004793161430052314 -0.00018644708311015037 0.9866220722681429 -0.1119899145574189 -0.003850897284555864 0.010118276143951957
334.0 -0.0035230785779660724 0.008981461892001278 0.9887108054535616 -0.10012764088146693 0.000480546899284911 -0.00018754244897067456 0.000480546899284911 -0.00018754244897067456
 0.9887108054535617 -0.10012764088146693 -0.003523078577966072 0.008981461892001287 0.000480546899284911 -0.00018754244897067456 0.000480546899284911 -0.00018754244897067456
 0.000480546899284911 -0.00018754244897067456 0.000480546899284911 -0.00018754244897067456 -0.0038280475723899135 0.01012695059106624 0.986618457365159 -0.11236354154109487
 0.000480546899284911 -0.00018754244897067456 0.000480546899284911 -0.00018754244897067456 0.9866184573651587 -0.11236354154109485 -0.0038280475723899135 0.01012695059106624
335.0 -0.003503277940536295 0.00898911350867609 0.988711327483981 -0.10046074835564034 0.000481775808088832 -0.00018864078775373614 0.000481775808088832 -0.00018864078775373614
 0.9887113274839812 -0.10046074835564035 -0.0035032779405362946 0.008989113508676098 0.000481775808088832 -0.00018864078775373614 0.000481775808088832 -0.00018864078775373614
 0.000481775808088832 -0.00018864078775373614 0.000481775808088832 -0.00018864078775373614 -0.0038053083951673887 0.010135428033048274 0.9866143337496049 -0.11273746677475298
 0.000481775808088832 -0.00018864078775373614 0.000481775808088832 -0.00018864078775373614 0.9866143337496047 -0.11273746677475296 -0.0038053083951673887 0.010135428033048274
336.0 -0.0034834773031065173 0.008996765125350905 0.9887118495144006 -0.10079385582981376 0.0004830028643213375 -0.00018974209670046555 0.0004830028643213375 -0.00018974209670046555
 0.9887118495144006 -0.10079385582981376 -0.0034834773031065173 0.00899676512535091 0.0004830028643213375 -0.00018974209670046555 0.0004830028643213375 -0.00018974209670046555
 0.0004830028643213375 -0.00018974209670046555 0.0004830028643213375 -0.00018974209670046555 -0.003782569217944864 0.010143905475030307 0.986610210134051 -0.11311139200841108
 0.0004830028643213375 -0.00018974209670046555 0.0004830028643213375 -0.00018974209670046555 0.9866102101340508 -0.11311139200841107 -0.003782569217944864 0.010143905475030308
337.0 -0.00346367666567674 0.009004416742025718 0.9887123715448201 -0.10112696330398717 0.00048422806289062664 -0.00019084637304433018 0.00048422806289062664 -0.00019084637304433018
 0.9887123715448201 -0.10112696330398717 -0.00346367666567674 0.009004416742025723 0.00048422806289062664 -0.00019084637304433018 0.00048422806289062664 -0.00019084637304433018
 0.00048422806289062664 -0.00019084637304433018 0.00048422806289062664 -0.00019084637304433018 -0.003759830040722339 0.01015238291701234 0.986606086518497 -0.11348531724206919
 0.00048422806289062664 -0.00019084637304433018 0.00048422806289062664 -0.00019084637304433018 0.9866060865184969 -0.11348531724206917 -0.003759830040722339 0.010152382917012343
338.0 -0.0034438760282469627 0.009012068358700531 0.9887128935752395 -0.10146007077816059 0.0004854513987087655 -0.00019195361401113956 0.0004854513987087655 -0.00019195361401113956
 0.9887128935752395 -0.10146007077816059 -0.0034438760282469627 0.009012068358700534 0.0004854513987087655 -0.00019195361401113956 0.0004854513987087655 -0.00019195361401113956
 0.0004854513987087655 -0.00019195361401113956 0.0004854513987087655 -0.00019195361401113956 -0.0037370908634998144 0.010160860358994375 0.986601962902943 -0.11385924247572729
 0.0004854513987087655 -0.00019195361401113956 0.0004854513987087655 -0.00019195361401113956 0.986601962902943 -0.11385924247572729 -0.0037370908634998144 0.010160860358994377
339.0 -0.003424251249209452 0.009019423632072433 0.9887126723995813 -0.10179363035516102 0.0004866728666916985 -0.00019306381681905076 0.0004866728666916985 -0.00019306381681905076
 0.9887126723995813 -0.10179363035516102 -0.003424251249209452 0.009019423632072435 0.0004866728666916985 -0.00019306381681905076 0.0004866728666916985 -0.00019306381681905076
 0.0004866728666916985 -0.00019306381681905076 0.0004866728666916985 -0.00019306381681905076 -0.0037145498128240513 0.010169000929110765 0.9865969461937085 -0.11423366939619613
 0.0004866728666916985 -0.00019306381681905076 0.0004866728666916985 -0.00019306381681905076 0.9865969461937085 -0.11423366939619613 -0.0037145498128240513 0.010169000929110768
340.0 -0.0034047018380543403 0.00902665190117166 0.9887121327070325 -0.10212738369051588 0.0004878924617592579 -0.00019417697867857308 0.0004878924617592579 -0.00019417697867857308
 0.9887121327070325 -0.10212738369051588 -0.0034047018380543408 0.00902665190117166 0.0004878924617592579 -0.00019417697867857308 0.0004878924617592579 -0.00019417697867857308
 0.0004878924617592579 -0.00019417697867857308 0.0004878924617592579 -0.00019417697867857308 -0.0036920936735254715 0.010176997125570452 0.9865915467300396 -0.11460831132529813
 0.0004878924617592579 -0.00019417697867857308 0.0004878924617592579 -0.00019417697867857308 0.9865915467300396 -0.11460831132529813 -0.0036920936735254715 0.010176997125570453
341.0 -0.0033851524268992293 0.009033880170270885 0.9887115930144839 -0.10246113702587074 0.0004891101788351761 -0.00019529309679257388 0.0004891101788351761 -0.00019529309679257388
 0.9887115930144839 -0.10246113702587074 -0.0033851524268992293 0.009033880170270885 0.0004891101788351761 -0.00019529309679257388 0.0004891101788351761 -0.00019529309679257388
 0.0004891101788351761 -0.00019529309679257388 0.0004891101788351761 -0.00019529309679257388 -0.003669637534226892 0.010184993322030138 0.9865861472663705 -0.11498295325440012
 0.0004891101788351761 -0.00019529309679257388 0.0004891101788351761 -0.00019529309679257388 0.9865861472663705 -0.11498295325440012 -0.003669637534226892 0.01018499332203014
342.0 -0.003365603015744118 0.009041108439370112 0.9887110533219351 -0.10279489036122562 0.0004903260128470946 -0.00019641216835628332 0.0004903260128470946 -0.00019641216835628332
 0.9887110533219351 -0.10279489036122562 -0.0033656030157441182 0.009041108439370109 0.0004903260128470946 -0.00019641216835628332 0.0004903260128470946 -0.00019641216835628332
 0.0004903260128470946 -0.00019641216835628332 0.0004903260128470946 -0.00019641216835628332 -0.0036471813949283125 0.010192989518489825 0.9865807478027016 -0.11535759518350212
 0.0004903260128470946 -0.00019641216835628332 0.0004903260128470946 -0.00019641216835628332 0.9865807478027016 -0.11535759518350212 -0.0036471813949283125 0.010192989518489827
343.0 -0.0033460536045890068 0.00904833670846934 0.9887105136293864 -0.10312864369658048 0.0004915399587265761 -0.00019753419055729978 0.0004915399587265761 -0.00019753419055729978
 0.9887105136293864 -0.10312864369658048 -0.0033460536045890068 0.009048336708469334 0.0004915399587265761 -0.00019753419055729978 0.0004915399587265761 -0.00019753419055729978
 0.0004915399587265761 -0.00019753419055729978 0.0004915399587265761 -0.00019753419055729978 -0.0036247252556297327 0.010200985714949512 0.9865753483390325 -0.11573223711260412
 0.0004915399587265761 -0.00019753419055729978 0.0004915399587265761 -0.00019753419055729978 0.9865753483390325 -0.11573223711260412 -0.0036247252556297327 0.010200985714949514
344.0 -0.003326709797477567 0.009055234345241777 0.9887091127342479 -0.10346289815450305 0.0004927520114091149 -0.0001986591605755953 0.0004927520114091149 -0.0001986591605755953
 0.9887091127342479 -0.10346289815450305 -0.0033267097974775672 0.009055234345241771 0.0004927520114091149 -0.0001986591605755953 0.0004927520114091149 -0.0001986591605755953
 0.0004927520114091149 -0.0001986591605755953 0.0004927520114091149 -0.0001986591605755953 -0.0036025008855652225 0.010208606089876296 0.9865689147513499 -0.11610743431507131
 0.0004927520114091149 -0.0001986591605755953 0.0004927520114091149 -0.0001986591605755953 0.9865689147513499 -0.11610743431507131 -0.0036025008855652225 0.010208606089876296
345.0 -0.003307417391377045 0.009062049323932517 0.9887074965384619 -0.10379727789306754 0.0004939621658341469 -0.00019978707558352042 0.0004939621658341469 -0.00019978707558352042
 0.9887074965384619 -0.10379727789306754 -0.0033074173913770454 0.009062049323932514 0.0004939621658341469 -0.00019978707558352042 0.0004939621658341469 -0.00019978707558352042
 0.0004939621658341469 -0.00019978707558352042 0.0004939621658341469 -0.00019978707558352042 -0.0035803344578092294 0.010216132509419855 0.9865622226326638 -0.11648277033587978
 0.0004939621658341469 -0.00019978707558352042 0.0004939621658341469 -0.00019978707558352042 0.9865622226326638 -0.11648277033587978 -0.00358033445780923 0.010216132509419853
346.0 -0.0032881249852765235 0.009068864302623257 0.9887058803426759 -0.10413165763163204 0.0004951704169450613 -0.00020091793274580995 0.0004951704169450613 -0.00020091793274580995
 0.9887058803426759 -0.10413165763163204 -0.0032881249852765235 0.009068864302623254 0.0004951704169450613 -0.00020091793274580995 0.0004951704169450613 -0.00020091793274580995
 0.0004951704169450613 -0.00020091793274580995 0.0004951704169450613 -0.00020091793274580995 -0.003558168030053237 0.010223658928963413 0.9865555305139778 -0.11685810635668827
 0.0004951704169450613 -0.00020091793274580995 0.0004951704169450613 -0.00020091793274580995 0.9865555305139778 -0.11685810635668827 -0.003558168030053237 0.010223658928963408
347.0 -0.0032688325791760016 0.009075679281313998 0.9887042641468899 -0.10446603737019654 0.0004963767596892104 -0.00020205172921958792 0.0004963767596892104 -0.00020205172921958792
 0.9887042641468899 -0.10446603737019654 -0.0032688325791760016 0.009075679281313996 0.0004963767596892104 -0.00020205172921958792 0.0004963767596892104 -0.00020205172921958792
 0.0004963767596892104 -0.00020205172921958792 0.0004963767596892104 -0.00020205172921958792 -0.0035360016022972438 0.010231185348506974 0.9865488383952918 -0.11723344237749675
 0.0004963767596892104 -0.00020205172921958792 0.0004963767596892104 -0.00020205172921958792 0.9865488383952918 -0.11723344237749675 -0.003536001602297244 0.010231185348506965
348.0 -0.0032495401730754797 0.009082494260004738 0.988702647951104 -0.10480041710876103 0.000497581189017921 -0.0002031884621543731 0.000497581189017921 -0.0002031884621543731
 0.988702647951104 -0.10480041710876103 -0.0032495401730754797 0.009082494260004736 0.000497581189017921 -0.0002031884621543731 0.000497581189017921 -0.0002031884621543731
 0.000497581189017921 -0.0002031884621543731 0.000497581189017921 -0.0002031884621543731 -0.003513835174541251 0.010238711768050532 0.9865421462766057 -0.11760877839830522
 0.000497581189017921 -0.0002031884621543731 0.000497581189017921 -0.0002031884621543731 0.9865421462766057 -0.11760877839830522 -0.0035138351745412516 0.010238711768050522
349.0 -0.003230483013553425 0.009088945125252662 0.9887000535019985 -0.10513533764605361 0.0004987836998865044 -0.0002043281286920841 0.0004987836998865044 -0.0002043281286920841
 0.9887000535019985 -0.10513533764605361 -0.003230483013553425 0.00908894512525266 0.0004987836998865044 -0.0002043281286920841 0.0004987836998865044 -0.0002043281286920841
 0.0004987836998865044 -0.0002043281286920841 0.0004987836998865044 -0.0002043281286920841 -0.003491934100257117 0.010245824350940142 0.9865342801187778 -0.1179847126780474
 0.0004987836998865044 -0.0002043281286920841 0.0004987836998865044 -0.0002043281286920841 0.9865342801187778 -0.1179847126780474 -0.0034919341002571176 0.010245824350940133
350.0 -0.003211451992540089 0.009095355533451381 0.9886973503580799 -0.10547031827209374 0.0004999842872542681 -0.0002054707259670451 0.0004999842872542681 -0.0002054707259670451
 0.9886973503580799 -0.10547031827209374 -0.003211451992540089 0.009095355533451381 0.0004999842872542681 -0.0002054707259670451 0.0004999842872542681 -0.0002054707259670451
 0.0004999842872542681 -0.0002054707259670451 0.0004999842872542681 -0.0002054707259670451 -0.0034700625096920792 0.010252890951979312 0.9865262835121562 -0.11836071343100445
 0.0004999842872542681 -0.0002054707259670451 0.0004999842872542681 -0.0002054707259670451 0.9865262835121561 -0.11836071343100442 -0.0034700625096920797 0.010252890951979307
351.0 -0.0031924209715267528 0.009101765941650103 0.9886946472141612 -0.10580529889813388 0.0005011829460845248 -0.00020661625110599073 0.0005011829460845248 -0.00020661625110599073
 0.9886946472141612 -0.10580529889813388 -0.0031924209715267528 0.009101765941650103 0.0005011829460845248 -0.00020661625110599073 0.0005011829460845248 -0.00020661625110599073
 0.0005011829460845248 -0.00020661625110599073 0.0005011829460845248 -0.00020661625110599073 -0.0034481909191270413 0.010259957553018484 0.9865182869055347 -0.11873671418396148
 0.0005011829460845248 -0.00020661625110599073 0.0005011829460845248 -0.00020661625110599073 0.9865182869055346 -0.11873671418396145 -0.0034481909191270413 0.010259957553018478
352.0 -0.0031733899505134167 0.009108176349848823 0.9886919440702426 -0.10614027952417401 0.000502379671344605 -0.00020776470122807174 0.000502379671344605 -0.00020776470122807174
 0.9886919440702426 -0.10614027952417401 -0.0031733899505134167 0.009108176349848823 0.000502379671344605 -0.00020776470122807174 0.000502379671344605 -0.00020776470122807174
 0.000502379671344605 -0.00020776470122807174 0.000502379671344605 -0.00020776470122807174 -0.003426319328562003 0.010267024154057653 0.9865102902989131 -0.11911271493691852
 0.000502379671344605 -0.00020776470122807174 0.000502379671344605 -0.00020776470122807174 0.9865102902989129 -0.11911271493691848 -0.0034263193285620033 0.010267024154057652
353.0 -0.0031543589295000805 0.009114586758047544 0.9886892409263239 -0.10647526015021415 0.000503574458005866 -0.00020891607344486045 0.000503574458005866 -0.00020891607344486045
 0.9886892409263239 -0.10647526015021415 -0.0031543589295000805 0.009114586758047544 0.000503574458005866 -0.00020891607344486045 0.000503574458005866 -0.00020891607344486045
 0.000503574458005866 -0.00020891607344486045 0.000503574458005866 -0.00020891607344486045 -0.003404447737996965 0.010274090755096825 0.9865022936922916 -0.11948871568987555
 0.000503574458005866 -0.00020891607344486045 0.000503574458005866 -0.00020891607344486045 0.9865022936922914 -0.11948871568987551 -0.003404447737996965 0.010274090755096825
354.0 -0.003135594263636177 0.009120602985236469 0.988685439518016 -0.10681081687410171 0.0005047673010437036 -0.00021007036486035585 0.0005047673010437036 -0.00021007036486035585
 0.988685439518016 -0.10681081687410171 -0.0031355942636361765 0.00912060298523647 0.0005047673010437036 -0.00021007036486035585 0.0005047673010437036 -0.00021007036486035585
 0.0005047673010437036 -0.00021007036486035585 0.0005047673010437036 -0.00021007036486035585 -0.0033828767389371926 0.010280709384955839 0.9864929797952933 -0.11986535260504011
 0.0005047673010437036 -0.00021007036486035585 0.0005047673010437036 -0.00021007036486035585 0.986492979795293 -0.11986535260504008 -0.003382876738937193 0.010280709384955839
355.0 -0.003116829597772273 0.009126619212425394 0.988681638109708 -0.10714637359798926 0.0005059581954375622 -0.00021122757257098943 0.0005059581954375622 -0.00021122757257098943
 0.9886816381097081 -0.10714637359798927 -0.0031168295977722724 0.009126619212425397 0.0005059581954375622 -0.00021122757257098943 0.0005059581954375622 -0.00021122757257098943
 0.0005059581954375622 -0.00021122757257098943 0.0005059581954375622 -0.00021122757257098943 -0.003361305739877421 0.010287328014814854 0.9864836658982948 -0.12024198952020468
 0.0005059581954375622 -0.00021122757257098943 0.0005059581954375622 -0.00021122757257098943 0.9864836658982948 -0.12024198952020465 -0.003361305739877421 0.010287328014814853
356.0 -0.0030980649319083692 0.009132635439614319 0.9886778367014001 -0.10748193032187682 0.0005071471361709456 -0.0002123876936656301 0.0005071471361709456 -0.0002123876936656301
 0.9886778367014003 -0.10748193032187683 -0.0030980649319083684 0.009132635439614324 0.0005071471361709456 -0.0002123876936656301 0.0005071471361709456 -0.0002123876936656301
 0.0005071471361709456 -0.0002123876936656301 0.0005071471361709456 -0.0002123876936656301 -0.0033397347408176486 0.010293946644673868 0.9864743520012965 -0.12061862643536923
 0.0005071471361709456 -0.0002123876936656301 0.0005071471361709456 -0.0002123876936656301 0.9864743520012965 -0.12061862643536922 -0.003339734740817649 0.010293946644673866
357.0 -0.0030793002660444656 0.009138651666803244 0.9886740352930922 -0.10781748704576438 0.0005083341182314276 -0.00021355072522559002 0.0005083341182314276 -0.00021355072522559002
 0.9886740352930924 -0.10781748704576441 -0.0030793002660444643 0.009138651666803253 0.0005083341182314276 -0.00021355072522559002 0.0005083341182314276 -0.00021355072522559002
 0.0005083341182314276 -0.00021355072522559002 0.0005083341182314276 -0.00021355072522559002 -0.0033181637417578768 0.010300565274532882 0.9864650381042981 -0.12099526335053379
 0.0005083341182314276 -0.00021355072522559002 0.0005083341182314276 -0.00021355072522559002 0.9864650381042982 -0.12099526335053379 -0.0033181637417578768 0.01030056527453288
358.0 -0.0030605626740967283 0.00914462937052478 0.9886701231906085 -0.10815309966247456 0.0005095191366106625 -0.00021471666432463 0.0005095191366106625 -0.00021471666432463
 0.9886701231906089 -0.10815309966247459 -0.003060562674096727 0.00914462937052479 0.0005095191366106625 -0.00021471666432463 0.0005095191366106625 -0.00021471666432463
 0.0005095191366106625 -0.00021471666432463 0.0005095191366106625 -0.00021471666432463 -0.003296623312011299 0.010307140130631765 0.986455591484865 -0.1213719618828861
 0.0005095191366106625 -0.00021471666432463 0.0005095191366106625 -0.00021471666432463 0.9864555914848652 -0.12137196188288611 -0.0032966233120112994 0.010307140130631762
359.0 -0.0030420687473944876 0.009150260363039809 0.988665214840544 -0.10848921531458838 0.0005107021863043961 -0.00021588550802896487 0.0005107021863043961 -0.00021588550802896487
 0.9886652148405444 -0.10848921531458841 -0.0030420687473944868 0.009150260363039814 0.0005107021863043961 -0.00021588550802896487 0.0005107021863043961 -0.00021588550802896487
 0.0005107021863043961 -0.00021588550802896487 0.0005107021863043961 -0.00021588550802896487 -0.00327535800608347 0.010313321022889467 0.986444950363519 -0.12174921496992813
 0.0005107021863043961 -0.00021588550802896487 0.0005107021863043961 -0.00021588550802896487 0.9864449503635191 -0.12174921496992813 -0.0032753580060834704 0.010313321022889463
360.0 -0.003023574820692247 0.009155891355554838 0.9886603064904795 -0.10882533096670222 0.0005118832623124756 -0.00021705725339726887 0.0005118832623124756 -0.00021705725339726887
 0.9886603064904799 -0.10882533096670223 -0.0030235748206922466 0.009155891355554838 0.0005118832623124756 -0.00021705725339726887 0.0005118832623124756 -0.00021705725339726887
 0.0005118832623124756 -0.00021705725339726887 0.0005118832623124756 -0.00021705725339726887 -0.003254092700155641 0.010319501915147166 0.986434309242173 -0.12212646805697017
 0.0005118832623124756 -0.00021705725339726887 0.0005118832623124756 -0.00021705725339726887 0.986434309242173 -0.12212646805697015 -0.0032540927001556415 0.010319501915147165
361.0 -0.0030050808939900064 0.009161522348069866 0.988655398140415 -0.10916144661881604 0.000513062359638861 -0.00021823189748068161 0.000513062359638861 -0.00021823189748068161
 0.9886553981404154 -0.10916144661881605 -0.0030050808939900064 0.009161522348069865 0.000513062359638861 -0.00021823189748068161 0.000513062359638861 -0.00021823189748068161
 0.000513062359638861 -0.00021823189748068161 0.000513062359638861 -0.00021823189748068161 -0.003232827394227812 0.010325682807404868 0.986423668120827 -0.1225037211440122
 0.000513062359638861 -0.00021823189748068161 0.000513062359638861 -0.00021823189748068161 0.9864236681208269 -0.12250372114401217 -0.0032328273942278125 0.010325682807404866
362.0 -0.002986586967287766 0.009167153340584894 0.9886504897903505 -0.10949756227092985 0.0005142394732916349 -0.00021940943732281294 0.0005142394732916349 -0.00021940943732281294
 0.9886504897903508 -0.10949756227092987 -0.0029865869672877662 0.00916715334058489 0.0005142394732916349 -0.00021940943732281294 0.0005142394732916349 -0.00021940943732281294
 0.0005142394732916349 -0.00021940943732281294 0.0005142394732916349 -0.00021940943732281294 -0.0032115620882999835 0.01033186369966257 0.9864130269994811 -0.12288097423105424
 0.0005142394732916349 -0.00021940943732281294 0.0005142394732916349 -0.00021940943732281294 0.9864130269994809 -0.12288097423105421 -0.0032115620882999835 0.010331863699662568
363.0 -0.002968147886362827 0.009172709154839457 0.988645358430178 -0.10983378364070374 0.0005154145982830138 -0.000220589869959749 0.0005154145982830138 -0.000220589869959749
 0.9886453584301782 -0.10983378364070376 -0.0029681478863628277 0.00917270915483945 0.0005154145982830138 -0.000220589869959749 0.0005154145982830138 -0.000220589869959749
 0.0005154145982830138 -0.000220589869959749 0.0005154145982830138 -0.000220589869959749 -0.003190358741264098 0.01033795917785442 0.9864021186178776 -0.12325834359641114
 0.0005154145982830138 -0.000220589869959749 0.0005154145982830138 -0.000220589869959749 0.9864021186178773 -0.12325834359641111 -0.003190358741264098 0.01033795917785442
364.0 -0.002949928188547095 0.009177964256052155 0.988639335029573 -0.11017042788111789 0.000516587729629358 -0.00022177319242005757 0.000516587729629358 -0.00022177319242005757
 0.9886393350295731 -0.1101704278811179 -0.0029499281885470956 0.00917796425605215 0.000516587729629358 -0.00022177319242005757 0.000516587729629358 -0.00022177319242005757
 0.000516587729629358 -0.00022177319242005757 0.000516587729629358 -0.00022177319242005757 -0.0031694032297959877 0.010343712999782873 0.9863901411952447 -0.12363617807502754
 0.000516587729629358 -0.00022177319242005757 0.000516587729629358 -0.00022177319242005757 0.9863901411952445 -0.1236361780750275 -0.0031694032297959873 0.010343712999782876
365.0 -0.002931708490731363 0.009183219357264853 0.988633311628968 -0.11050707212153205 0.0005177588623511825 -0.00022295940172479344 0.0005177588623511825 -0.00022295940172479344
 0.9886333116289681 -0.11050707212153205 -0.0029317084907313634 0.00918321935726485 0.0005177588623511825 -0.00022295940172479344 0.0005177588623511825 -0.00022295940172479344
 0.0005177588623511825 -0.00022295940172479344 0.0005177588623511825 -0.00022295940172479344 -0.0031484477183278767 0.010349466821711326 0.9863781637726117 -0.12401401255364393
 0.0005177588623511825 -0.00022295940172479344 0.0005177588623511825 -0.00022295940172479344 0.9863781637726116 -0.1240140125536439 -0.0031484477183278763 0.01034946682171133
366.0 -0.0029134887929156313 0.009188474458477551 0.988627288228363 -0.11084371636194619 0.0005189279914731681 -0.00022414849488750437 0.0005189279914731681 -0.00022414849488750437
 0.988627288228363 -0.11084371636194619 -0.0029134887929156313 0.009188474458477551 0.0005189279914731681 -0.00022414849488750437 0.0005189279914731681 -0.00022414849488750437
 0.0005189279914731681 -0.00022414849488750437 0.0005189279914731681 -0.00022414849488750437 -0.0031274922068597662 0.01035522064363978 0.9863661863499787 -0.12439184703226032
 0.0005189279914731681 -0.00022414849488750437 0.0005189279914731681 -0.00022414849488750437 0.9863661863499787 -0.1243918470322603 -0.0031274922068597654 0.010355220643639786
367.0 -0.0028952690950998995 0.009193729559690248 0.9886212648277579 -0.11118036060236033 0.0005200951120241704 -0.00022534046891423633 0.0005200951120241704 -0.00022534046891423633
 0.988621264827758 -0.11118036060236035 -0.002895269095099899 0.009193729559690252 0.0005200951120241704 -0.00022534046891423633 0.0005200951120241704 -0.00022534046891423633
 0.0005200951120241704 -0.00022534046891423633 0.0005200951120241704 -0.00022534046891423633 -0.0031065366953916553 0.010360974465568233 0.9863542089273457 -0.12476968151087671
 0.0005200951120241704 -0.00022534046891423633 0.0005200951120241704 -0.00022534046891423633 0.9863542089273458 -0.12476968151087671 -0.0031065366953916544 0.01036097446556824
368.0 -0.0028771328014319617 0.009198874545436612 0.9886149058086771 -0.11151715756131705 0.0005212602190372322 -0.0002265353208035394 0.0005212602190372322 -0.0002265353208035394
 0.9886149058086771 -0.11151715756131705 -0.0028771328014319613 0.009198874545436617 0.0005212602190372322 -0.0002265353208035394 0.0005212602190372322 -0.0002265353208035394
 0.0005212602190372322 -0.0002265353208035394 0.0005212602190372322 -0.0002265353208035394 -0.003085675448418117 0.010366603203483787 0.98634182934071 -0.12514768363254522
 0.0005212602190372322 -0.0002265353208035394 0.0005212602190372322 -0.0002265353208035394 0.98634182934071 -0.12514768363254522 -0.0030856754484181155 0.010366603203483796
369.0 -0.0028591911174422092 0.009203762595094858 0.988607763679819 -0.11185431086353975 0.0005224233075495926 -0.00022773304754647312 0.0005224233075495926 -0.00022773304754647312
 0.988607763679819 -0.11185431086353975 -0.002859191117442209 0.009203762595094863 0.0005224233075495926 -0.00022773304754647312 0.0005224233075495926 -0.00022773304754647312
 0.0005224233075495926 -0.00022773304754647312 0.0005224233075495926 -0.00022773304754647312 -0.0030650341519319136 0.01037194007870258 0.986328511371401 -0.12552607692133536
 0.0005224233075495926 -0.00022773304754647312 0.0005224233075495926 -0.00022773304754647312 0.986328511371401 -0.12552607692133533 -0.0030650341519319127 0.010371940078702586
370.0 -0.002841249433452457 0.009208650644753106 0.988600621550961 -0.11219146416576245 0.0005235843726026984 -0.00022893364612661213 0.0005235843726026984 -0.00022893364612661213
 0.988600621550961 -0.11219146416576245 -0.0028412494334524568 0.00920865064475311 0.0005235843726026984 -0.00022893364612661213 0.0005235843726026984 -0.00022893364612661213
 0.0005235843726026984 -0.00022893364612661213 0.0005235843726026984 -0.00022893364612661213 -0.00304439285544571 0.010377276953921372 0.986315193402092 -0.12590447021012546
 0.0005235843726026984 -0.00022893364612661213 0.0005235843726026984 -0.00022893364612661213 0.9863151934020918 -0.12590447021012544 -0.00304439285544571 0.010377276953921375
371.0 -0.002823307749462705 0.009213538694411353 0.988593479422103 -0.11252861746798513 0.0005247434092422138 -0.00023013711352005208 0.0005247434092422138 -0.00023013711352005208
 0.988593479422103 -0.11252861746798513 -0.0028233077494627047 0.009213538694411357 0.0005247434092422138 -0.00023013711352005208 0.0005247434092422138 -0.00023013711352005208
 0.0005247434092422138 -0.00023013711352005208 0.0005247434092422138 -0.00023013711352005208 -0.0030237515589595066 0.010382613829140165 0.9863018754327829 -0.12628286349891557
 0.0005247434092422138 -0.00023013711352005208 0.0005247434092422138 -0.00023013711352005208 0.9863018754327828 -0.12628286349891554 -0.0030237515589595066 0.010382613829140165
372.0 -0.002805366065472953 0.0092184267440696 0.9885863372932449 -0.11286577077020783 0.0005259004125180324 -0.0002313434466954152 0.0005259004125180324 -0.0002313434466954152
 0.9885863372932449 -0.11286577077020783 -0.0028053660654729527 0.009218426744069603 0.0005259004125180324 -0.0002313434466954152 0.0005259004125180324 -0.0002313434466954152
 0.0005259004125180324 -0.0002313434466954152 0.0005259004125180324 -0.0002313434466954152 -0.0030031102624733033 0.010387950704358957 0.9862885574634739 -0.1266612567877057
 0.0005259004125180324 -0.0002313434466954152 0.0005259004125180324 -0.0002313434466954152 0.9862885574634737 -0.12666125678770565 -0.0030031102624733037 0.010387950704358955
373.0 -0.002787536860475757 0.00922317154032913 0.9885787416657198 -0.11320311891320907 0.0005270553774842853 -0.00023255264261385546 0.0005270553774842853 -0.00023255264261385546
 0.9885787416657197 -0.11320311891320907 -0.0027875368604757564 0.009223171540329133 0.0005270553774842853 -0.00023255264261385546 0.0005270553774842853 -0.00023255264261385546
 0.0005270553774842853 -0.00023255264261385546 0.0005270553774842853 -0.00023255264261385546 -0.002982596146017894 0.010393124878022983 0.9862746965066653 -0.12703986339943038
 0.0005270553774842853 -0.00023255264261385546 0.0005270553774842853 -0.00023255264261385546 0.9862746965066651 -0.12703986339943033 -0.0029825961460178945 0.01039312487802298
374.0 -0.002769876373967395 0.009227701456490583 0.9885704657901939 -0.11354075931737813 0.0005282082991993539 -0.00023376469822906508 0.0005282082991993539 -0.00023376469822906508
 0.9885704657901938 -0.11354075931737811 -0.0027698763739673945 0.009227701456490586 0.0005282082991993539 -0.00023376469822906508 0.0005282082991993539 -0.00023376469822906508
 0.0005282082991993539 -0.00023376469822906508 0.0005282082991993539 -0.00023376469822906508 -0.002962272799608676 0.01039805499935486 0.9862600210686077 -0.1274187899955569
 0.0005282082991993539 -0.00023376469822906508 0.0005282082991993539 -0.00023376469822906508 0.9862600210686074 -0.12741878999555684 -0.0029622727996086763 0.01039805499935486
375.0 -0.0027522158874590326 0.009232231372652036 0.9885621899146682 -0.11387839972154719 0.0005293591727258797 -0.00023497961048727972 0.0005293591727258797 -0.00023497961048727972
 0.9885621899146679 -0.11387839972154717 -0.0027522158874590326 0.009232231372652038 0.0005293591727258797 -0.00023497961048727972 0.0005293591727258797 -0.00023497961048727972
 0.0005293591727258797 -0.00023497961048727972 0.0005293591727258797 -0.00023497961048727972 -0.002941949453199458 0.010402985120686737 0.9862453456305499 -0.12779771659168343
 0.0005293591727258797 -0.00023497961048727972 0.0005293591727258797 -0.00023497961048727972 0.9862453456305497 -0.12779771659168337 -0.002941949453199458 0.010402985120686738
376.0 -0.0027345554009506707 0.00923676128881349 0.9885539140391424 -0.11421604012571623 0.0005305079931307736 -0.0002361973763272843 0.0005305079931307736 -0.0002361973763272843
 0.9885539140391421 -0.11421604012571622 -0.0027345554009506707 0.009236761288813492 0.0005305079931307736 -0.0002361973763272843 0.0005305079931307736 -0.0002361973763272843
 0.0005305079931307736 -0.0002361973763272843 0.0005305079931307736 -0.0002361973763272843 -0.0029216261067902404 0.010407915242018614 0.9862306701924922 -0.12817664318780994
 0.0005305079931307736 -0.0002361973763272843 0.0005305079931307736 -0.0002361973763272843 0.9862306701924919 -0.12817664318780989 -0.00292162610679024 0.010407915242018617
377.0 -0.002716894914442309 0.009241291204974944 0.9885456381636165 -0.1145536805298853 0.0005316547554852283 -0.00023741799268041868 0.0005316547554852283 -0.00023741799268041868
 0.9885456381636162 -0.11455368052988527 -0.002716894914442309 0.009241291204974945 0.0005316547554852283 -0.00023741799268041868 0.0005316547554852283 -0.00023741799268041868
 0.0005316547554852283 -0.00023741799268041868 0.0005316547554852283 -0.00023741799268041868 -0.0029013027603810226 0.01041284536335049 0.9862159947544344 -0.12855556978393645
 0.0005316547554852283 -0.00023741799268041868 0.0005316547554852283 -0.00023741799268041868 0.9862159947544341 -0.1285555697839364 -0.0029013027603810217 0.010412845363350496
378.0 -0.0026993764266780088 0.009245646831331573 0.9885367951263178 -0.11489155179538413 0.0005327994548647273 -0.0002386414564705835 0.0005327994548647273 -0.0002386414564705835
 0.9885367951263175 -0.11489155179538411 -0.002699376426678009 0.009245646831331571 0.0005327994548647273 -0.0002386414564705835 0.0005327994548647273 -0.0002386414564705835
 0.0005327994548647273 -0.0002386414564705835 0.0005327994548647273 -0.0002386414564705835 -0.0028811400373442205 0.010417577569251846 0.9862006402649094 -0.12893474847123612
 0.0005327994548647273 -0.0002386414564705835 0.0005327994548647273 -0.0002386414564705835 0.9862006402649091 -0.12893474847123607 -0.00288114003734422 0.010417577569251851
379.0 -0.0026819999376577713 0.009249828167883374 0.9885273849272461 -0.11522965392221275 0.0005339420863490557 -0.00023986776461424578 0.0005339420863490557 -0.00023986776461424578
 0.9885273849272459 -0.11522965392221274 -0.0026819999376577718 0.009249828167883372 0.0005339420863490557 -0.00023986776461424578 0.0005339420863490557 -0.00023986776461424578
 0.0005339420863490557 -0.00023986776461424578 0.0005339420863490557 -0.00023986776461424578 -0.0028611379376798345 0.01042211185972268 0.986184606723917 -0.1293141792497089
 0.0005339420863490557 -0.00023986776461424578 0.0005339420863490557 -0.00023986776461424578 0.9861846067239167 -0.12931417924970887 -0.0028611379376798345 0.010422111859722681
380.0 -0.002664623448637534 0.009254009504435175 0.9885179747281744 -0.11556775604904136 0.0005350826450223112 -0.00024109691402044505 0.0005350826450223112 -0.00024109691402044505
 0.9885179747281743 -0.11556775604904136 -0.0026646234486375343 0.009254009504435173 0.0005350826450223112 -0.00024109691402044505 0.0005350826450223112 -0.00024109691402044505
 0.0005350826450223112 -0.00024109691402044505 0.0005350826450223112 -0.00024109691402044505 -0.0028411358380154485 0.010426646150193513 0.9861685731829245 -0.12969361002818167
 0.0005350826450223112 -0.00024109691402044505 0.0005350826450223112 -0.00024109691402044505 0.9861685731829244 -0.12969361002818164 -0.002841135838015449 0.010426646150193512
381.0 -0.0026472469596172965 0.009258190840986977 0.9885085645291027 -0.11590585817586999 0.0005362211259729139 -0.00024232890159079853 0.0005362211259729139 -0.00024232890159079853
 0.9885085645291027 -0.11590585817586999 -0.002647246959617297 0.009258190840986972 0.0005362211259729139 -0.00024232890159079853 0.0005362211259729139 -0.00024232890159079853
 0.0005362211259729139 -0.00024232890159079853 0.0005362211259729139 -0.00024232890159079853 -0.0028211337383510626 0.010431180440664347 0.9861525396419321 -0.13007304080665444
 0.0005362211259729139 -0.00024232890159079853 0.0005362211259729139 -0.00024232890159079853 0.986152539641932 -0.13007304080665444 -0.0028211337383510634 0.010431180440664344
382.0 -0.002629870470597059 0.009262372177538778 0.988499154330031 -0.1162439603026986 0.0005373575242936169 -0.00024356372421950752 0.0005373575242936169 -0.00024356372421950752
 0.9884991543300311 -0.11624396030269861 -0.0026298704705970594 0.009262372177538773 0.0005373575242936169 -0.00024356372421950752 0.0005373575242936169 -0.00024356372421950752
 0.0005373575242936169 -0.00024356372421950752 0.0005373575242936169 -0.00024356372421950752 -0.0028011316386866766 0.01043571473113518 0.9861365061009396 -0.13045247158512724
 0.0005373575242936169 -0.00024356372421950752 0.0005373575242936169 -0.00024356372421950752 0.9861365061009396 -0.13045247158512724 -0.002801131638686678 0.010435714731135174
383.0 -0.00261266602755981 0.009266348986125487 0.9884890616745672 -0.11658232764423801 0.0005384918350815174 -0.000244801378793363 0.0005384918350815174 -0.000244801378793363
 0.9884890616745673 -0.11658232764423802 -0.0026126660275598104 0.009266348986125484 0.0005384918350815174 -0.000244801378793363 0.0005384918350815174 -0.000244801378793363
 0.0005384918350815174 -0.000244801378793363 0.0005384918350815174 -0.000244801378793363 -0.0027813242365066857 0.010440016830767335 0.9861196555745345 -0.13083219119726802
 0.0005384918350815174 -0.000244801378793363 0.0005384918350815174 -0.000244801378793363 0.9861196555745345 -0.13083219119726802 -0.002781324236506687 0.010440016830767326
384.0 -0.0025955762818445534 0.009270189442735468 0.9884785140481752 -0.1169208717955846 0.0005396240534380657 -0.0002460418621917511 0.0005396240534380657 -0.0002460418621917511
 0.9884785140481753 -0.11692087179558461 -0.0025955762818445534 0.009270189442735466 0.0005396240534380657 -0.0002460418621917511 0.0005396240534380657 -0.0002460418621917511
 0.0005396240534380657 -0.0002460418621917511 0.0005396240534380657 -0.0002460418621917511 -0.0027616466326496254 0.010444164136507034 0.9861022603911875 -0.13121210336518746
 0.0005396240534380657 -0.0002460418621917511 0.0005396240534380657 -0.0002460418621917511 0.9861022603911875 -0.13121210336518746 -0.0027616466326496262 0.010444164136507027
385.0 -0.002578486536129297 0.009274029899345448 0.9884679664217833 -0.11725941594693119 0.0005407541744690767 -0.0002472851712866597 0.0005407541744690767 -0.0002472851712866597
 0.9884679664217834 -0.1172594159469312 -0.0025784865361292964 0.009274029899345448 0.0005407541744690767 -0.0002472851712866597 0.0005407541744690767 -0.0002472851712866597
 0.0005407541744690767 -0.0002472851712866597 0.0005407541744690767 -0.0002472851712866597 -0.0027419690287925646 0.010448311442246732 0.9860848652078407 -0.1315920155331069
 0.0005407541744690767 -0.0002472851712866597 0.0005407541744690767 -0.0002472851712866597 0.9860848652078407 -0.1315920155331069 -0.0027419690287925655 0.010448311442246725
386.0 -0.0025613967904140403 0.009277870355955429 0.9884574187953913 -0.11759796009827778 0.0005418821932847407 -0.0002485313029426835 0.0005418821932847407 -0.0002485313029426835
 0.9884574187953915 -0.11759796009827779 -0.0025613967904140394 0.009277870355955432 0.0005418821932847407 -0.0002485313029426835 0.0005418821932847407 -0.0002485313029426835
 0.0005418821932847407 -0.0002485313029426835 0.0005418821932847407 -0.0002485313029426835 -0.0027222914249355043 0.010452458747986431 0.9860674700244937 -0.13197192770102634
 0.0005418821932847407 -0.0002485313029426835 0.0005418821932847407 -0.0002485313029426835 0.9860674700244937 -0.13197192770102634 -0.0027222914249355047 0.010452458747986426
387.0 -0.0025443070446987833 0.00928171081256541 0.9884468711689993 -0.11793650424962437 0.0005430081049996318 -0.0002497802540170304 0.0005430081049996318 -0.0002497802540170304
 0.9884468711689995 -0.11793650424962439 -0.0025443070446987824 0.009281710812565415 0.0005430081049996318 -0.0002497802540170304 0.0005430081049996318 -0.0002497802540170304
 0.0005430081049996318 -0.0002497802540170304 0.0005430081049996318 -0.0002497802540170304 -0.0027026138210784435 0.01045660605372613 0.9860500748411468 -0.1323518398689458
 0.0005430081049996318 -0.0002497802540170304 0.0005430081049996318 -0.0002497802540170304 0.9860500748411468 -0.1323518398689458 -0.002702613821078444 0.010456606053726126
388.0 -0.0025274197696250607 0.00928531884497453 0.9884355208932849 -0.11827534341044287 0.0005441319047327211 -0.0002510320213595272 0.0005441319047327211 -0.0002510320213595272
 0.988435520893285 -0.11827534341044288 -0.0025274197696250602 0.009285318844974536 0.0005441319047327211 -0.0002510320213595272 0.0005441319047327211 -0.0002510320213595272
 0.0005441319047327211 -0.0002510320213595272 0.0005441319047327211 -0.0002510320213595272 -0.0026831654266506106 0.010460489557423677 0.9860317192495188 -0.13273207228365166
 0.0005441319047327211 -0.0002510320213595272 0.0005441319047327211 -0.0002510320213595272 0.9860317192495188 -0.13273207228365166 -0.0026831654266506106 0.010460489557423673
389.0 -0.0025106192676834236 0.009288827267011855 0.9884238266250036 -0.11861430900389218 0.0005452535876073846 -0.0002522866018126254 0.0005452535876073846 -0.0002522866018126254
 0.9884238266250037 -0.1186143090038922 -0.0025106192676834236 0.009288827267011857 0.0005452535876073846 -0.0002522866018126254 0.0005452535876073846 -0.0002522866018126254
 0.0005452535876073846 -0.0002522866018126254 0.0005452535876073846 -0.0002522866018126254 -0.002663815264835304 0.010464260003103156 0.9860129520543418 -0.13311244194698027
 0.0005452535876073846 -0.0002522866018126254 0.0005452535876073846 -0.0002522866018126254 0.9860129520543418 -0.13311244194698027 -0.002663815264835304 0.010464260003103156
390.0 -0.002493818765741787 0.009292335689049181 0.9884121323567223 -0.1189532745973415 0.0005463731487514149 -0.00025354399221140745 0.0005463731487514149 -0.00025354399221140745
 0.9884121323567224 -0.1189532745973415 -0.0024938187657417873 0.00929233568904918 0.0005463731487514149 -0.00025354399221140745 0.0005463731487514149 -0.00025354399221140745
 0.0005463731487514149 -0.00025354399221140745 0.0005463731487514149 -0.00025354399221140745 -0.002644465103019997 0.010468030448782637 0.9859941848591649 -0.1334928116103089
 0.0005463731487514149 -0.00025354399221140745 0.0005463731487514149 -0.00025354399221140745 0.9859941848591649 -0.1334928116103089 -0.0026444651030199965 0.010468030448782637
391.0 -0.00247701826380015 0.009295844111086506 0.988400438088441 -0.11929224019079081 0.0005474905832970313 -0.0002548041893835922 0.0005474905832970313 -0.0002548041893835922
 0.9884004380884411 -0.11929224019079081 -0.0024770182638001507 0.0092958441110865 0.0005474905832970313 -0.0002548041893835922 0.0005474905832970313 -0.0002548041893835922
 0.0005474905832970313 -0.0002548041893835922 0.0005474905832970313 -0.0002548041893835922 -0.00262511494120469 0.010471800894462117 0.9859754176639879 -0.1338731812736375
 0.0005474905832970313 -0.0002548041893835922 0.0005474905832970313 -0.0002548041893835922 0.9859754176639879 -0.1338731812736375 -0.0026251149412046893 0.010471800894462119
392.0 -0.002460217761858513 0.00929935253312383 0.9883887438201598 -0.11963120578424012 0.0005486058863808899 -0.0002560671901495412 0.0005486058863808899 -0.0002560671901495412
 0.9883887438201598 -0.11963120578424012 -0.0024602177618585144 0.009299352533123823 0.0005486058863808899 -0.0002560671901495412 0.0005486058863808899 -0.0002560671901495412
 0.0005486058863808899 -0.0002560671901495412 0.0005486058863808899 -0.0002560671901495412 -0.0026057647793893833 0.010475571340141598 0.9859566504688109 -0.13425355093696612
 0.0005486058863808899 -0.0002560671901495412 0.0005486058863808899 -0.0002560671901495412 0.9859566504688109 -0.13425355093696612 -0.0026057647793893825 0.0104755713401416
393.0 -0.0024436502464170026 0.00930260223457092 0.9883761294175579 -0.11997048943291018 0.0005497190531440946 -0.00025733299132226455 0.0005497190531440946 -0.00025733299132226455
 0.9883761294175579 -0.11997048943291018 -0.0024436502464170035 0.009302602234570911 0.0005497190531440946 -0.00025733299132226455 0.0005497190531440946 -0.00025733299132226455
 0.0005497190531440946 -0.00025733299132226455 0.0005497190531440946 -0.00025733299132226455 -0.0025866784707033567 0.010479048209590282 0.9859367825377762 -0.1346342645927043
 0.0005497190531440946 -0.00025733299132226455 0.0005497190531440946 -0.00025733299132226455 0.9859367825377762 -0.1346342645927043 -0.0025866784707033563 0.010479048209590284
394.0 -0.0024271409776005235 0.00930578725587045 0.9883632849813759 -0.12030985259538543 0.0005508300787322063 -0.0002586015897074267 0.0005508300787322063 -0.0002586015897074267
 0.9883632849813759 -0.12030985259538543 -0.0024271409776005243 0.009305787255870444 0.0005508300787322063 -0.0002586015897074267 0.0005508300787322063 -0.0002586015897074267
 0.0005508300787322063 -0.0002586015897074267 0.0005508300787322063 -0.0002586015897074267 -0.0025676581252996504 0.01048245168498127 0.985916639422777 -0.13501506424654486
 0.0005508300787322063 -0.0002586015897074267 0.0005508300787322063 -0.0002586015897074267 0.985916639422777 -0.13501506424654486 -0.00256765812529965 0.010482451684981268
395.0 -0.0024106317087840444 0.00930897227716998 0.9883504405451939 -0.12064921575786068 0.0005519389582952548 -0.00025987298210335277 0.0005519389582952548 -0.00025987298210335277
 0.9883504405451939 -0.12064921575786068 -0.002410631708784045 0.009308972277169975 0.0005519389582952548 -0.00025987298210335277 0.0005519389582952548 -0.00025987298210335277
 0.0005519389582952548 -0.00025987298210335277 0.0005519389582952548 -0.00025987298210335277 -0.0025486377798959437 0.010485855160372256 0.9858964963077778 -0.1353958639003854
 0.0005519389582952548 -0.00025987298210335277 0.0005519389582952548 -0.00025987298210335277 0.9858964963077778 -0.1353958639003854 -0.002548637779895944 0.010485855160372252
396.0 -0.0023941224399675652 0.00931215729846951 0.988337596109012 -0.12098857892033592 0.0005530456869877472 -0.00026114716530103424 0.0005530456869877472 -0.00026114716530103424
 0.988337596109012 -0.12098857892033592 -0.0023941224399675652 0.009312157298469508 0.0005530456869877472 -0.00026114716530103424 0.0005530456869877472 -0.00026114716530103424
 0.0005530456869877472 -0.00026114716530103424 0.0005530456869877472 -0.00026114716530103424 -0.0025296174344922374 0.010489258635763242 0.9858763531927786 -0.13577666355422596
 0.0005530456869877472 -0.00026114716530103424 0.0005530456869877472 -0.00026114716530103424 0.9858763531927786 -0.13577666355422596 -0.0025296174344922383 0.010489258635763237
397.0 -0.002377613171151086 0.00931534231976904 0.98832475167283 -0.12132794208281117 0.0005541502599686804 -0.0002624241360841351 0.0005541502599686804 -0.0002624241360841351
 0.98832475167283 -0.12132794208281117 -0.002377613171151086 0.009315342319769038 0.0005541502599686804 -0.0002624241360841351 0.0005541502599686804 -0.0002624241360841351
 0.0005541502599686804 -0.0002624241360841351 0.0005541502599686804 -0.0002624241360841351 -0.002510597089088531 0.01049266211115423 0.9858562100777793 -0.13615746320806654
 0.0005541502599686804 -0.0002624241360841351 0.0005541502599686804 -0.0002624241360841351 0.9858562100777793 -0.13615746320806654 -0.0025105970890885324 0.010492662111154221
398.0 -0.0023613671896999203 0.009318242852774026 0.9883108708920325 -0.12166764021740495 0.0005552526724015496 -0.00026370389122899783 0.0005552526724015496 -0.00026370389122899783
 0.9883108708920325 -0.12166764021740495 -0.0023613671896999203 0.009318242852774024 0.0005552526724015496 -0.00026370389122899783 0.0005552526724015496 -0.00026370389122899783
 0.0005552526724015496 -0.00026370389122899783 0.0005552526724015496 -0.00026370389122899783 -0.0024918750431765545 0.010495742865462033 0.9858348273852788 -0.1365386236053484
 0.0005552526724015496 -0.00026370389122899783 0.0005552526724015496 -0.00026370389122899783 0.9858348273852788 -0.1365386236053484 -0.0024918750431765554 0.010495742865462026
399.0 -0.002345150462400456 0.009321111775968508 0.9882968749618334 -0.122007375571123 0.0005563529194543593 -0.0002649864275046494 0.0005563529194543593 -0.0002649864275046494
 0.9882968749618334 -0.12200737557112301 -0.0023451504624004563 0.009321111775968505 0.0005563529194543593 -0.0002649864275046494 0.0005563529194543593 -0.0002649864275046494
 0.0005563529194543593 -0.0002649864275046494 0.0005563529194543593 -0.0002649864275046494 -0.002473186141652548 0.010498787761871704 0.9858133069619448 -0.13691982408523484
 0.0005563529194543593 -0.0002649864275046494 0.0005563529194543593 -0.0002649864275046494 0.9858133069619449 -0.13691982408523487 -0.0024731861416525487 0.010498787761871698
400.0 -0.0023289337351009914 0.00932398069916299 0.9882828790316341 -0.12234711092484106 0.0005574509962996339 -0.0002662717416728074 0.0005574509962996339 -0.0002662717416728074
 0.9882828790316343 -0.12234711092484107 -0.0023289337351009923 0.009323980699162985 0.0005574509962996339 -0.0002662717416728074 0.0005574509962996339 -0.0002662717416728074
 0.0005574509962996339 -0.0002662717416728074 0.0005574509962996339 -0.0002662717416728074 -0.002454497240128541 0.010501832658281376 0.9857917865386108 -0.1373010245651213
 0.0005574509962996339 -0.0002662717416728074 0.0005574509962996339 -0.0002662717416728074 0.9857917865386109 -0.1373010245651213 -0.002454497240128542 0.010501832658281373
401.0 -0.002312717007801527 0.009326849622357471 0.988268883101435 -0.12268684627855911 0.0005585468981144274 -0.00026755983048788615 0.0005585468981144274 -0.00026755983048788615
 0.9882688831014351 -0.12268684627855914 -0.002312717007801528 0.009326849622357466 0.0005585468981144274 -0.00026755983048788615 0.0005585468981144274 -0.00026755983048788615
 0.0005585468981144274 -0.00026755983048788615 0.0005585468981144274 -0.00026755983048788615 -0.002435808338604535 0.010504877554691048 0.9857702661152768 -0.13768222504500774
 0.0005585468981144274 -0.00026755983048788615 0.0005585468981144274 -0.00026755983048788615 0.985770266115277 -0.13768222504500777 -0.002435808338604535 0.010504877554691046
402.0 -0.0022965002805020625 0.009329718545551953 0.9882548871712359 -0.12302658163227717 0.0005596406200803341 -0.00026885069069700247 0.0005596406200803341 -0.00026885069069700247
 0.988254887171236 -0.1230265816322772 -0.0022965002805020638 0.009329718545551946 0.0005596406200803341 -0.00026885069069700247 0.0005596406200803341 -0.00026885069069700247
 0.0005596406200803341 -0.00026885069069700247 0.0005596406200803341 -0.00026885069069700247 -0.002417119437080528 0.01050792245110072 0.9857487456919428 -0.1380634255248942
 0.0005596406200803341 -0.00026885069069700247 0.0005596406200803341 -0.00026885069069700247 0.9857487456919429 -0.13806342552489423 -0.002417119437080528 0.01050792245110072
403.0 -0.0022805785508796645 0.00933227968999706 0.9882397348859763 -0.1233666747429905 0.0005607321573834988 -0.0002701443190399822 0.0005607321573834988 -0.0002701443190399822
 0.9882397348859763 -0.12336667474299051 -0.0022805785508796654 0.009332279689997053 0.0005607321573834988 -0.0002701443190399822 0.0005607321573834988 -0.0002701443190399822
 0.0005607321573834988 -0.0002701443190399822 0.0005607321573834988 -0.0002701443190399822 -0.00239876485452314 0.010510618323635899 0.9857258424345682 -0.1384450098898139
 0.0005607321573834988 -0.0002701443190399822 0.0005607321573834988 -0.0002701443190399822 0.9857258424345682 -0.1384450098898139 -0.0023987648545231396 0.0105106183236359
404.0 -0.002264656821257266 0.009334840834442165 0.9882245826007167 -0.12370676785370383 0.0005618215052146268 -0.000271440712249366 0.0005618215052146268 -0.000271440712249366
 0.9882245826007166 -0.12370676785370383 -0.002264656821257267 0.009334840834442162 0.0005618215052146268 -0.000271440712249366 0.0005618215052146268 -0.000271440712249366
 0.0005618215052146268 -0.000271440712249366 0.0005618215052146268 -0.000271440712249366 -0.0023804102719657515 0.010513314196171079 0.9857029391771934 -0.1388265942547336
 0.0005618215052146268 -0.000271440712249366 0.0005618215052146268 -0.000271440712249366 0.9857029391771934 -0.1388265942547336 -0.002380410271965751 0.010513314196171082
405.0 -0.002248735091634868 0.009337401978887272 0.9882094303154572 -0.12404686096441715 0.0005629086587689945 -0.00027273986705041555 0.0005629086587689945 -0.00027273986705041555
 0.9882094303154569 -0.12404686096441714 -0.0022487350916348685 0.009337401978887268 0.0005629086587689945 -0.00027273986705041555 0.0005629086587689945 -0.00027273986705041555
 0.0005629086587689945 -0.00027273986705041555 0.0005629086587689945 -0.00027273986705041555 -0.0023620556894083634 0.010516010068706257 0.9856800359198188 -0.1392081786196533
 0.0005629086587689945 -0.00027273986705041555 0.0005629086587689945 -0.00027273986705041555 0.9856800359198187 -0.13920817861965326 -0.0023620556894083625 0.010516010068706262
406.0 -0.00223281336201247 0.009339963123332379 0.9881942780301975 -0.12438695407513048 0.0005639936132464595 -0.0002740417801611197 0.0005639936132464595 -0.0002740417801611197
 0.9881942780301972 -0.12438695407513045 -0.00223281336201247 0.009339963123332377 0.0005639936132464595 -0.0002740417801611197 0.0005639936132464595 -0.0002740417801611197
 0.0005639936132464595 -0.0002740417801611197 0.0005639936132464595 -0.0002740417801611197 -0.002343701106850975 0.010518705941241437 0.9856571326624441 -0.13958976298457298
 0.0005639936132464595 -0.0002740417801611197 0.0005639936132464595 -0.0002740417801611197 0.9856571326624439 -0.13958976298457296 -0.002343701106850974 0.010518705941241444
407.0 -0.00221692121508683 0.009342494232055723 0.9881790099880555 -0.12472708083676891 0.0005650763638514707 -0.00027534644829220066 0.0005650763638514707 -0.00027534644829220066
 0.9881790099880552 -0.12472708083676887 -0.00221692121508683 0.009342494232055722 0.0005650763638514707 -0.00027534644829220066 0.0005650763638514707 -0.00027534644829220066
 0.0005650763638514707 -0.00027534644829220066 0.0005650763638514707 -0.00027534644829220066 -0.0023253800629135677 0.010521367763991644 0.9856340909920651 -0.139971383284331
 0.0005650763638514707 -0.00027534644829220066 0.0005650763638514707 -0.00027534644829220066 0.9856340909920649 -0.13997138328433095 -0.0023253800629135664 0.010521367763991653
408.0 -0.002201295312432014 0.009344755019283212 0.9881627001339721 -0.12506751045673334 0.0005661569057930787 -0.00027665386814712013 0.0005661569057930787 -0.00027665386814712013
 0.9881627001339718 -0.12506751045673328 -0.002201295312432014 0.009344755019283208 0.0005661569057930787 -0.00027665386814712013 0.0005661569057930787 -0.00027665386814712013
 0.0005661569057930787 -0.00027665386814712013 0.0005661569057930787 -0.00027665386814712013 -0.00230736086655599 0.010523723138677108 0.9856098036046469 -0.14035332699763384
 0.0005661569057930787 -0.00027665386814712013 0.0005661569057930787 -0.00027665386814712013 0.9856098036046468 -0.1403533269976338 -0.002307360866555989 0.010523723138677115
409.0 -0.0021856694097771977 0.009347015806510699 0.9881463902798887 -0.12540794007669773 0.0005672352342849463 -0.00027796403642208525 0.0005672352342849463 -0.00027796403642208525
 0.9881463902798885 -0.12540794007669773 -0.0021856694097771986 0.009347015806510695 0.0005672352342849463 -0.00027796403642208525 0.0005672352342849463 -0.00027796403642208525
 0.0005672352342849463 -0.00027796403642208525 0.0005672352342849463 -0.00027796403642208525 -0.0022893416701984127 0.010526078513362572 0.9855855162172287 -0.14073527071093667
 0.0005672352342849463 -0.00027796403642208525 0.0005672352342849463 -0.00027796403642208525 0.9855855162172287 -0.14073527071093664 -0.002289341670198412 0.01052607851336258
410.0 -0.002170043507122382 0.009349276593738187 0.9881300804258053 -0.12574836969666214 0.000568311344545358 -0.00027927694980605527 0.000568311344545358 -0.00027927694980605527
 0.9881300804258051 -0.12574836969666214 -0.0021700435071223827 0.009349276593738182 0.000568311344545358 -0.00027927694980605527 0.000568311344545358 -0.00027927694980605527
 0.000568311344545358 -0.00027927694980605527 0.000568311344545358 -0.00027927694980605527 -0.002271322473840835 0.010528433888048036 0.9855612288298105 -0.1411172144242395
 0.000568311344545358 -0.00027927694980605527 0.000568311344545358 -0.00027927694980605527 0.9855612288298106 -0.1411172144242395 -0.0022713224738408343 0.010528433888048043
411.0 -0.002154417604467566 0.009351537380965676 0.9881137705717218 -0.12608879931662656 0.0005693852317972307 -0.0002805926049807473 0.0005693852317972307 -0.0002805926049807473
 0.9881137705717218 -0.12608879931662656 -0.0021544176044675668 0.009351537380965669 0.0005693852317972307 -0.0002805926049807473 0.0005693852317972307 -0.0002805926049807473
 0.0005693852317972307 -0.0002805926049807473 0.0005693852317972307 -0.0002805926049807473 -0.002253303277483257 0.0105307892627335 0.9855369414423921 -0.14149915813754232
 0.0005693852317972307 -0.0002805926049807473 0.0005693852317972307 -0.0002805926049807473 0.9855369414423925 -0.14149915813754235 -0.0022533032774832568 0.010530789262733506
412.0 -0.0021388511290377113 0.009353739771256402 0.988097229005565 -0.12642929100000333 0.0005704568912681239 -0.0002819109986206425 0.0005704568912681239 -0.0002819109986206425
 0.988097229005565 -0.12642929100000333 -0.0021388511290377126 0.009353739771256394 0.0005704568912681239 -0.0002819109986206425 0.0005704568912681239 -0.0002819109986206425
 0.0005704568912681239 -0.0002819109986206425 0.0005704568912681239 -0.0002819109986206425 -0.002235351475901679 0.010533078458556328 0.98551237704111 -0.14188116770295478
 0.0005704568912681239 -0.0002819109986206425 0.0005704568912681239 -0.0002819109986206425 0.9855123770411104 -0.1418811677029548 -0.0022353514759016787 0.010533078458556331
413.0 -0.0021235223625077036 0.009355708573800078 0.9880797605911146 -0.1267700309370295 0.0005715263181902501 -0.00028323212739299314 0.0005715263181902501 -0.00028323212739299314
 0.9880797605911146 -0.1267700309370295 -0.0021235223625077045 0.009355708573800072 0.0005715263181902501 -0.00028323212739299314 0.0005715263181902501 -0.00028323212739299314
 0.0005715263181902501 -0.00028323212739299314 0.0005715263181902501 -0.00028323212739299314 -0.0022176692534240997 0.010535102938928608 0.9854867045843724 -0.14226344067680563
 0.0005715263181902501 -0.00028323212739299314 0.0005715263181902501 -0.00028323212739299314 0.9854867045843727 -0.14226344067680566 -0.0022176692534240992 0.01053510293892861
414.0 -0.0021081935959776955 0.009357677376343755 0.9880622921766643 -0.12711077087405565 0.000572593507800484 -0.0002845559879578274 0.000572593507800484 -0.0002845559879578274
 0.9880622921766643 -0.12711077087405565 -0.0021081935959776964 0.00935767737634375 0.000572593507800484 -0.0002845559879578274 0.000572593507800484 -0.0002845559879578274
 0.000572593507800484 -0.0002845559879578274 0.000572593507800484 -0.0002845559879578274 -0.0021999870309465197 0.010537127419300888 0.9854610321276348 -0.1426457136506565
 0.000572593507800484 -0.0002845559879578274 0.000572593507800484 -0.0002845559879578274 0.9854610321276349 -0.1426457136506565 -0.00219998703094652 0.010537127419300888
415.0 -0.002092864829447688 0.00935964617888743 0.9880448237622139 -0.12745151081108183 0.0005736584553403742 -0.000285882576967957 0.0005736584553403742 -0.000285882576967957
 0.9880448237622139 -0.12745151081108183 -0.0020928648294476883 0.009359646178887428 0.0005736584553403742 -0.000285882576967957 0.0005736584553403742 -0.000285882576967957
 0.0005736584553403742 -0.000285882576967957 0.0005736584553403742 -0.000285882576967957 -0.00218230480846894 0.010539151899673168 0.9854353596708971 -0.14302798662450736
 0.0005736584553403742 -0.000285882576967957 0.0005736584553403742 -0.000285882576967957 0.9854353596708972 -0.14302798662450739 -0.0021823048084689406 0.010539151899673166
416.0 -0.00207753606291768 0.009361614981431107 0.9880273553477635 -0.127792250748108 0.000574721156056152 -0.00028721189106898276 0.000574721156056152 -0.00028721189106898276
 0.9880273553477635 -0.127792250748108 -0.0020775360629176802 0.009361614981431106 0.000574721156056152 -0.00028721189106898276 0.000574721156056152 -0.00028721189106898276
 0.000574721156056152 -0.00028721189106898276 0.000574721156056152 -0.00028721189106898276 -0.00216462258599136 0.010541176380045448 0.9854096872141594 -0.14341025959835824
 0.000574721156056152 -0.00028721189106898276 0.000574721156056152 -0.00028721189106898276 0.9854096872141596 -0.14341025959835824 -0.002164622585991361 0.010541176380045444
417.0 -0.0020622966307707455 0.00936349813528618 0.9880095389905843 -0.12813307859382853 0.0005757816051987417 -0.00028854392689930063 0.0005757816051987417 -0.00028854392689930063
 0.9880095389905843 -0.12813307859382853 -0.0020622966307707455 0.00936349813528618 0.0005757816051987417 -0.00028854392689930063 0.0005757816051987417 -0.00028854392689930063
 0.0005757816051987417 -0.00028854392689930063 0.0005757816051987417 -0.00028854392689930063 -0.002147041712631036 0.010543103837412294 0.9853835988279239 -0.1437926253205216
 0.0005757816051987417 -0.00028854392689930063 0.0005757816051987417 -0.00028854392689930063 0.9853835988279239 -0.1437926253205216 -0.002147041712631037 0.010543103837412289
418.0 -0.0020472656455176493 0.009365181442201179 0.9879909107670375 -0.12847411155983596 0.0005768397980237725 -0.00028987868109010915 0.0005768397980237725 -0.00028987868109010915
 0.9879909107670375 -0.12847411155983596 -0.0020472656455176493 0.009365181442201179 0.0005768397980237725 -0.00028987868109010915 0.0005768397980237725 -0.00028987868109010915
 0.0005768397980237725 -0.00028987868109010915 0.0005768397980237725 -0.00028987868109010915 -0.0021296973205443075 0.01054480490776646 0.9853565399395263 -0.14417520745541407
 0.0005768397980237725 -0.00028987868109010915 0.0005768397980237725 -0.00028987868109010915 0.9853565399395263 -0.14417520745541407 -0.0021296973205443084 0.010544804907766454
419.0 -0.002032234660264553 0.009366864749116176 0.9879722825434907 -0.12881514452584336 0.0005778957297915859 -0.0002912161502654143 0.0005778957297915859 -0.0002912161502654143
 0.9879722825434907 -0.12881514452584336 -0.002032234660264553 0.009366864749116176 0.0005778957297915859 -0.0002912161502654143 0.0005778957297915859 -0.0002912161502654143
 0.0005778957297915859 -0.0002912161502654143 0.0005778957297915859 -0.0002912161502654143 -0.002112352928457579 0.010546505978120626 0.9853294810511288 -0.14455778959030655
 0.0005778957297915859 -0.0002912161502654143 0.0005778957297915859 -0.0002912161502654143 0.9853294810511288 -0.14455778959030655 -0.00211235292845758 0.010546505978120619
420.0 -0.002017203675011457 0.009368548056031175 0.9879536543199439 -0.1291561774918508 0.000578949395767248 -0.00029255633104203674 0.000578949395767248 -0.00029255633104203674
 0.9879536543199439 -0.1291561774918508 -0.002017203675011457 0.009368548056031175 0.000578949395767248 -0.00029255633104203674 0.000578949395767248 -0.00029255633104203674
 0.000578949395767248 -0.00029255633104203674 0.000578949395767248 -0.00029255633104203674 -0.0020950085363708507 0.01054820704847479 0.9853024221627313 -0.144940371725199
 0.000578949395767248 -0.00029255633104203674 0.000578949395767248 -0.00029255633104203674 0.9853024221627313 -0.144940371725199 -0.0020950085363708516 0.010548207048474784
421.0 -0.0020021726897583607 0.009370231362946173 0.987935026096397 -0.12949721045785823 0.0005800007912205586 -0.00029389922002961803 0.0005800007912205586 -0.00029389922002961803
 0.987935026096397 -0.12949721045785823 -0.0020021726897583607 0.009370231362946173 0.0005800007912205586 -0.00029389922002961803 0.0005800007912205586 -0.00029389922002961803
 0.0005800007912205586 -0.00029389922002961803 0.0005800007912205586 -0.00029389922002961803 -0.002077664144284122 0.010549908118828957 0.9852753632743338 -0.14532295386009147
 0.0005800007912205586 -0.00029389922002961803 0.0005800007912205586 -0.00029389922002961803 0.9852753632743338 -0.14532295386009147 -0.002077664144284123 0.010549908118828949
422.0 -0.0019872611324059475 0.00937180342326536 0.9879159331099747 -0.12983835385576203 0.0005810499114260614 -0.0002952448138306267 0.0005810499114260614 -0.0002952448138306267
 0.9879159331099747 -0.12983835385576203 -0.001987261132405947 0.00937180342326536 0.0005810499114260614 -0.0002952448138306267 0.0005810499114260614 -0.0002952448138306267
 0.0005810499114260614 -0.0002952448138306267 0.0005810499114260614 -0.0002952448138306267 -0.002060455281771561 0.010551483220095425 0.9852477488904658 -0.1457056517642541
 0.0005810499114260614 -0.0002952448138306267 0.0005810499114260614 -0.0002952448138306267 0.9852477488904658 -0.1457056517642541 -0.0020604552817715623 0.010551483220095416
423.0 -0.0019725287169045586 0.009373208613690827 0.9878961429792392 -0.1301796629015104 0.0005820967516630549 -0.0002965931090403649 0.0005820967516630549 -0.0002965931090403649
 0.9878961429792392 -0.13017966290151037 -0.0019725287169045586 0.009373208613690828 0.0005820967516630549 -0.0002965931090403649 0.0005820967516630549 -0.0002965931090403649
 0.0005820967516630549 -0.0002965931090403649 0.0005820967516630549 -0.0002965931090403649 -0.002043449713620252 0.010552869367730342 0.985219301263392 -0.14608852332232186
 0.0005820967516630549 -0.0002965931090403649 0.0005820967516630549 -0.0002965931090403649 0.9852193012633921 -0.1460885233223219 -0.0020434497136202524 0.010552869367730337
424.0 -0.0019577963014031697 0.009374613804116293 0.9878763528485038 -0.13052097194725876 0.0005831413072156011 -0.0002979441022469747 0.0005831413072156011 -0.0002979441022469747
 0.9878763528485037 -0.13052097194725873 -0.0019577963014031697 0.009374613804116297 0.0005831413072156011 -0.0002979441022469747 0.0005831413072156011 -0.0002979441022469747
 0.0005831413072156011 -0.0002979441022469747 0.0005831413072156011 -0.0002979441022469747 -0.0020264441454689425 0.010554255515365261 0.9851908536363181 -0.14647139488038965
 0.0005831413072156011 -0.0002979441022469747 0.0005831413072156011 -0.0002979441022469747 0.9851908536363182 -0.14647139488038968 -0.002026444145468943 0.010554255515365258
425.0 -0.001943063885901781 0.009376018994541761 0.9878565627177683 -0.13086228099300712 0.0005841835733725368 -0.00029929779003144415 0.0005841835733725368 -0.00029929779003144415
 0.9878565627177681 -0.1308622809930071 -0.0019430638859017808 0.009376018994541765 0.0005841835733725368 -0.00029929779003144415 0.0005841835733725368 -0.00029929779003144415
 0.0005841835733725368 -0.00029929779003144415 0.0005841835733725368 -0.00029929779003144415 -0.002009438577317633 0.01055564166300018 0.9851624060092443 -0.14685426643845745
 0.0005841835733725368 -0.00029929779003144415 0.0005841835733725368 -0.00029929779003144415 0.9851624060092444 -0.14685426643845748 -0.002009438577317633 0.01055564166300018
426.0 -0.0019283314704003924 0.009377424184967228 0.9878367725870328 -0.13120359003875548 0.0005852235454274834 -0.00030065416896761434 0.0005852235454274834 -0.00030065416896761434
 0.9878367725870326 -0.13120359003875545 -0.001928331470400392 0.009377424184967233 0.0005852235454274834 -0.00030065416896761434 0.0005852235454274834 -0.00030065416896761434
 0.0005852235454274834 -0.00030065416896761434 0.0005852235454274834 -0.00030065416896761434 -0.0019924330091663236 0.010557027810635099 0.9851339583821704 -0.14723713799652524
 0.0005852235454274834 -0.00030065416896761434 0.0005852235454274834 -0.00030065416896761434 0.9851339583821707 -0.14723713799652527 -0.001992433009166323 0.0105570278106351
427.0 -0.001913748959498808 0.009378693918222786 0.9878164031956707 -0.13154502668295712 0.0005862612186788564 -0.00030201323562218524 0.0005862612186788564 -0.00030201323562218524
 0.9878164031956704 -0.1315450266829571 -0.0019137489594988075 0.009378693918222792 0.0005862612186788564 -0.00030201323562218524 0.0005862612186788564 -0.00030201323562218524
 0.0005862612186788564 -0.00030201323562218524 0.0005862612186788564 -0.00030201323562218524 -0.0019755976039083885 0.010558260649795021 0.9851048183560244 -0.14762014223776754
 0.0005862612186788564 -0.00030201323562218524 0.0005862612186788564 -0.00030201323562218524 0.9851048183560246 -0.1476201422377676 -0.0019755976039083885 0.010558260649795023
428.0 -0.0018993163531970281 0.009379828194308437 0.9877954545436817 -0.131886590925612 0.0005872965884298765 -0.0003033749865547225 0.0005872965884298765 -0.0003033749865547225
 0.9877954545436815 -0.13188659092561197 -0.0018993163531970275 0.009379828194308442 0.0005872965884298765 -0.0003033749865547225 0.0005872965884298765 -0.0003033749865547225
 0.0005872965884298765 -0.0003033749865547225 0.0005872965884298765 -0.0003033749865547225 -0.0019589323615438283 0.010559340180479949 0.9850749859308061 -0.14800327916218436
 0.0005872965884298765 -0.0003033749865547225 0.0005872965884298765 -0.0003033749865547225 0.9850749859308063 -0.14800327916218442 -0.0019589323615438283 0.010559340180479949
429.0 -0.001884883746895248 0.009380962470394086 0.9877745058916927 -0.13222815516826691 0.0005883296499885783 -0.00030473941831766365 0.0005883296499885783 -0.00030473941831766365
 0.9877745058916925 -0.1322281551682669 -0.0018848837468952476 0.009380962470394093 0.0005883296499885783 -0.00030473941831766365 0.0005883296499885783 -0.00030473941831766365
 0.0005883296499885783 -0.00030473941831766365 0.0005883296499885783 -0.00030473941831766365 -0.0019422671191792684 0.010560419711164877 0.9850451535055877 -0.1483864160866012
 0.0005883296499885783 -0.00030473941831766365 0.0005883296499885783 -0.00030473941831766365 0.985045153505588 -0.14838641608660125 -0.0019422671191792686 0.010560419711164875
430.0 -0.0018704511405934683 0.009382096746479737 0.9877535572397037 -0.13256971941092183 0.0005893603986678219 -0.00030610652745632455 0.0005893603986678219 -0.00030610652745632455
 0.9877535572397035 -0.1325697194109218 -0.0018704511405934676 0.009382096746479744 0.0005893603986678219 -0.00030610652745632455 0.0005893603986678219 -0.00030610652745632455
 0.0005893603986678219 -0.00030610652745632455 0.0005893603986678219 -0.00030610652745632455 -0.0019256018768147082 0.010561499241849804 0.9850153210803695 -0.14876955301101802
 0.0005893603986678219 -0.00030610652745632455 0.0005893603986678219 -0.00030610652745632455 0.9850153210803697 -0.14876955301101807 -0.0019256018768147086 0.0105614992418498
431.0 -0.0018560185342916882 0.009383231022565388 0.9877326085877147 -0.1329112836535767 0.0005903888297853015 -0.0003074763105089063 0.0005903888297853015 -0.0003074763105089063
 0.9877326085877145 -0.13291128365357668 -0.0018560185342916876 0.009383231022565393 0.0005903888297853015 -0.0003074763105089063 0.0005903888297853015 -0.0003074763105089063
 0.0005903888297853015 -0.0003074763105089063 0.0005903888297853015 -0.0003074763105089063 -0.0019089366344501478 0.010562578772534732 0.9849854886551511 -0.14915268993543485
 0.0005903888297853015 -0.0003074763105089063 0.0005903888297853015 -0.0003074763105089063 0.9849854886551513 -0.14915268993543487 -0.0019089366344501486 0.010562578772534727
432.0 -0.001841765586317318 0.009384206783886486 0.9877109598377896 -0.1332529874249152 0.0005914149386635565 -0.00030884876400650104 0.0005914149386635565 -0.00030884876400650104
 0.9877109598377893 -0.13325298742491518 -0.0018417655863173176 0.009384206783886491 0.0005914149386635565 -0.00030884876400650104 0.0005914149386635565 -0.00030884876400650104
 0.0005914149386635565 -0.00030884876400650104 0.0005914149386635565 -0.00030884876400650104 -0.0018924753995121484 0.01056347896827241 0.9849548198683555 -0.1495359703226288
 0.0005914149386635565 -0.00030884876400650104 0.0005914149386635565 -0.00030884876400650104 0.9849548198683558 -0.14953597032262883 -0.001892475399512149 0.010563478968272404
433.0 -0.001827632410561221 0.009385076868697885 0.9876888443559069 -0.1335947842153761 0.0005924387206299811 -0.000310223884473099 0.0005924387206299811 -0.000310223884473099
 0.9876888443559068 -0.13359478421537607 -0.0018276324105612207 0.009385076868697889 0.0005924387206299811 -0.000310223884473099 0.0005924387206299811 -0.000310223884473099
 0.0005924387206299811 -0.000310223884473099 0.0005924387206299811 -0.000310223884473099 -0.0018761501695251893 0.010564259607378588 0.9849235935071751 -0.14991934635167417
 0.0005924387206299811 -0.000310223884473099 0.0005924387206299811 -0.000310223884473099 0.9849235935071753 -0.1499193463516742 -0.00187615016952519 0.010564259607378583
434.0 -0.001813499234805124 0.009385946953509285 0.9876667288740242 -0.13393658100583697 0.000593460171016834 -0.0003116016684255949 0.000593460171016834 -0.0003116016684255949
 0.9876667288740242 -0.13393658100583697 -0.001813499234805124 0.009385946953509285 0.000593460171016834 -0.0003116016684255949 0.000593460171016834 -0.0003116016684255949
 0.000593460171016834 -0.0003116016684255949 0.000593460171016834 -0.0003116016684255949 -0.0018598249395382301 0.010565040246484766 0.9848923671459946 -0.15030272238071954
 0.000593460171016834 -0.0003116016684255949 0.000593460171016834 -0.0003116016684255949 0.9848923671459948 -0.15030272238071957 -0.0018598249395382308 0.010565040246484761
435.0 -0.001799366059049027 0.009386817038320684 0.9876446133921415 -0.13427837779629787 0.0005944792851612493 -0.0003129821123737941 0.0005944792851612493 -0.0003129821123737941
 0.9876446133921416 -0.13427837779629787 -0.0017993660590490271 0.009386817038320682 0.0005944792851612493 -0.0003129821123737941 0.0005944792851612493 -0.0003129821123737941
 0.0005944792851612493 -0.0003129821123737941 0.0005944792851612493 -0.0003129821123737941 -0.001843499709551271 0.010565820885590944 0.984861140784814 -0.1506860984097649
 0.0005944792851612493 -0.0003129821123737941 0.0005944792851612493 -0.0003129821123737941 0.9848611407848143 -0.15068609840976493 -0.0018434997095512717 0.01056582088559094
436.0 -0.0017852328832929298 0.009387687123132083 0.9876224979102588 -0.13462017458675873 0.0005954960584052455 -0.00031436521282041975 0.0005954960584052455 -0.00031436521282041975
 0.9876224979102589 -0.13462017458675876 -0.0017852328832929304 0.009387687123132078 0.0005954960584052455 -0.00031436521282041975 0.0005954960584052455 -0.00031436521282041975
 0.0005954960584052455 -0.00031436521282041975 0.0005954960584052455 -0.00031436521282041975 -0.0018271744795643119 0.010566601524697123 0.9848299144236335 -0.15106947443881025
 0.0005954960584052455 -0.00031436521282041975 0.0005954960584052455 -0.00031436521282041975 0.9848299144236339 -0.1510694744388103 -0.0018271744795643123 0.010566601524697117
437.0 -0.0017713094452246412 0.009388376512682773 0.9875995755257138 -0.1349621235733023 0.0005965104860957361 -0.000315750966261119 0.0005965104860957361 -0.000315750966261119
 0.9875995755257139 -0.13496212357330234 -0.0017713094452246417 0.00938837651268277 0.0005965104860957361 -0.000315750966261119 0.0005965104860957361 -0.000315750966261119
 0.0005965104860957361 -0.000315750966261119 0.0005965104860957361 -0.000315750966261119 -0.0018110874906065691 0.01056717785355417 0.9847977234497165 -0.15145300566453285
 0.0005965104860957361 -0.000315750966261119 0.0005965104860957361 -0.000315750966261119 0.9847977234497168 -0.1514530056645329 -0.0018110874906065693 0.010567177853554167
438.0 -0.0017574758947368422 0.009388988461407446 0.987576307325742 -0.13530413778673844 0.0005975225635845392 -0.00031713936918446926 0.0005975225635845392 -0.00031713936918446926
 0.987576307325742 -0.13530413778673844 -0.0017574758947368422 0.009388988461407446 0.0005975225635845392 -0.00031713936918446926 0.0005975225635845392 -0.00031713936918446926
 0.0005975225635845392 -0.00031713936918446926 0.0005975225635845392 -0.00031713936918446926 -0.0017951026049470619 0.010567666620875875 0.9847651190703409 -0.1518366034031171
 0.0005975225635845392 -0.00031713936918446926 0.0005975225635845392 -0.00031713936918446926 0.9847651190703411 -0.15183660340311714 -0.0017951026049470617 0.010567666620875875
439.0 -0.0017436423442490432 0.009389600410132119 0.9875530391257702 -0.1356461520001746 0.0005985322862283882 -0.0003185304180719857 0.0005985322862283882 -0.0003185304180719857
 0.9875530391257702 -0.13564615200017457 -0.001743642344249043 0.00938960041013212 0.0005985322862283882 -0.0003185304180719857 0.0005985322862283882 -0.0003185304180719857
 0.0005985322862283882 -0.0003185304180719857 0.0005985322862283882 -0.0003185304180719857 -0.0017791177192875544 0.01056815538819758 0.9847325146909653 -0.15222020114170134
 0.0005985322862283882 -0.0003185304180719857 0.0005985322862283882 -0.0003185304180719857 0.9847325146909656 -0.1522202011417014 -0.001779117719287554 0.010568155388197581
440.0 -0.0017298087937612442 0.009390212358856792 0.9875297709257984 -0.13598816621361073 0.000599539649388941 -0.00031992410939812665 0.000599539649388941 -0.00031992410939812665
 0.9875297709257983 -0.1359881662136107 -0.0017298087937612436 0.009390212358856797 0.000599539649388941 -0.00031992410939812665 0.000599539649388941 -0.00031992410939812665
 0.000599539649388941 -0.00031992410939812665 0.000599539649388941 -0.00031992410939812665 -0.0017631328336280472 0.010568644155519284 0.9846999103115898 -0.1526037988802856
 0.000599539649388941 -0.00031992410939812665 0.000599539649388941 -0.00031992410939812665 0.98469991031159 -0.15260379888028563 -0.0017631328336280463 0.010568644155519289
441.0 -0.001715975243273445 0.009390824307581465 0.9875065027258266 -0.1363301804270469 0.0006005446484327899 -0.00032132043963030134 0.0006005446484327899 -0.00032132043963030134
 0.9875065027258264 -0.13633018042704684 -0.0017159752432734442 0.009390824307581471 0.0006005446484327899 -0.00032132043963030134 0.0006005446484327899 -0.00032132043963030134
 0.0006005446484327899 -0.00032132043963030134 0.0006005446484327899 -0.00032132043963030134 -0.00174714794796854 0.010569132922840988 0.9846673059322142 -0.15298739661886987
 0.0006005446484327899 -0.00032132043963030134 0.0006005446484327899 -0.00032132043963030134 0.9846673059322144 -0.1529873966188699 -0.0017471479479685386 0.010569132922840995
442.0 -0.0017023820349515073 0.009391235802318012 0.9874823041629817 -0.13667235086681986 0.0006015472787314725 -0.0003227194052288758 0.0006015472787314725 -0.0003227194052288758
 0.9874823041629816 -0.13667235086681984 -0.0017023820349515064 0.009391235802318019 0.0006015472787314725 -0.0003227194052288758 0.0006015472787314725 -0.0003227194052288758
 0.0006015472787314725 -0.0003227194052288758 0.0006015472787314725 -0.0003227194052288758 -0.00173143612207903 0.010569395151025635 0.9846335901189385 -0.15337115114114258
 0.0006015472787314725 -0.0003227194052288758 0.0006015472787314725 -0.0003227194052288758 0.9846335901189386 -0.1533711511411426 -0.001731436122079029 0.010569395151025642
443.0 -0.0016888489121710348 0.00939159718355753 0.9874578730094183 -0.13701456036317708 0.0006025475356614804 -0.0003241210026471796 0.0006025475356614804 -0.0003241210026471796
 0.9874578730094183 -0.13701456036317702 -0.0016888489121710342 0.009391597183557535 0.0006025475356614804 -0.0003241210026471796 0.0006025475356614804 -0.0003241210026471796
 0.0006025475356614804 -0.0003241210026471796 0.0006025475356614804 -0.0003241210026471796 -0.0017157925611320194 0.01056960074442602 0.9845995964471876 -0.15375494485933738
 0.0006025475356614804 -0.0003241210026471796 0.0006025475356614804 -0.0003241210026471796 0.9845995964471879 -0.1537549448593374 -0.0017157925611320187 0.010569600744426024
444.0 -0.0016753157893905622 0.009391958564797047 0.9874334418558551 -0.13735676985953427 0.0006035454146042702 -0.00032552522833151283 0.0006035454146042702 -0.00032552522833151283
 0.9874334418558551 -0.13735676985953424 -0.001675315789390562 0.00939195856479705 0.0006035454146042702 -0.00032552522833151283 0.0006035454146042702 -0.00032552522833151283
 0.0006035454146042702 -0.00032552522833151283 0.0006035454146042702 -0.00032552522833151283 -0.0017001490001850089 0.010569806337826402 0.9845656027754369 -0.1541387385775322
 0.0006035454146042702 -0.00032552522833151283 0.0006035454146042702 -0.00032552522833151283 0.984565602775437 -0.15413873857753224 -0.0017001490001850085 0.010569806337826405
445.0 -0.0016617826666100897 0.009392319946036565 0.9874090107022918 -0.13769897935589145 0.0006045409109462728 -0.0003269320787211523 0.0006045409109462728 -0.0003269320787211523
 0.9874090107022919 -0.13769897935589145 -0.0016617826666100897 0.009392319946036565 0.0006045409109462728 -0.0003269320787211523 0.0006045409109462728 -0.0003269320787211523
 0.0006045409109462728 -0.0003269320787211523 0.0006045409109462728 -0.0003269320787211523 -0.0016845054392379984 0.010570011931226786 0.9845316091036862 -0.15452253229572704
 0.0006045409109462728 -0.0003269320787211523 0.0006045409109462728 -0.0003269320787211523 0.9845316091036863 -0.15452253229572704 -0.0016845054392379982 0.010570011931226787
446.0 -0.0016482495438296173 0.009392681327276081 0.9873845795487286 -0.13804118885224864 0.0006055340200789035 -0.0003283415502483587 0.0006055340200789035 -0.0003283415502483587
 0.9873845795487288 -0.13804118885224864 -0.0016482495438296177 0.00939268132727608 0.0006055340200789035 -0.0003283415502483587 0.0006055340200789035 -0.0003283415502483587
 0.0006055340200789035 -0.0003283415502483587 0.0006055340200789035 -0.0003283415502483587 -0.001668861878290988 0.01057021752462717 0.9844976154319355 -0.15490632601392187
 0.0006055340200789035 -0.0003283415502483587 0.0006055340200789035 -0.0003283415502483587 0.9844976154319355 -0.15490632601392187 -0.0016688618782909877 0.01057021752462717
447.0 -0.0016349859094651107 0.00939282189048265 0.9873591079006535 -0.1383835599287403 0.0006065247373985717 -0.000329753639338383 0.0006065247373985717 -0.000329753639338383
 0.9873591079006537 -0.1383835599287403 -0.0016349859094651111 0.009392821890482649 0.0006065247373985717 -0.000329753639338383 0.0006065247373985717 -0.000329753639338383
 0.0006065247373985717 -0.000329753639338383 0.0006065247373985717 -0.000329753639338383 -0.001653524606382252 0.010570173704346842 0.9844623784255544 -0.1552902797024847
 0.0006065247373985717 -0.000329753639338383 0.0006065247373985717 -0.000329753639338383 0.9844623784255544 -0.1552902797024847 -0.0016535246063822525 0.010570173704346838
448.0 -0.0016217522182579336 0.009392937918352226 0.9873335206420771 -0.1387259489585802 0.0006075130583066912 -0.0003311683424094728 0.0006075130583066912 -0.0003311683424094728
 0.9873335206420772 -0.1387259489585802 -0.001621752218257934 0.009392937918352225 0.0006075130583066912 -0.0003311683424094728 0.0006075130583066912 -0.0003311683424094728
 0.0006075130583066912 -0.0003311683424094728 0.0006075130583066912 -0.0003311683424094728 -0.0016382213665888802 0.010570102171435324 0.984427003270881 -0.15567425116553288
 0.0006075130583066912 -0.0003311683424094728 0.0006075130583066912 -0.0003311683424094728 0.984427003270881 -0.15567425116553288 -0.0016382213665888815 0.010570102171435317
449.0 -0.0016085185270507565 0.0093930539462218 0.9873079333835008 -0.1390683379884201 0.0006084989782096901 -0.00033258565587288003 0.0006084989782096901 -0.00033258565587288003
 0.9873079333835009 -0.1390683379884201 -0.001608518527050757 0.009393053946221799 0.0006084989782096901 -0.00033258565587288003 0.0006084989782096901 -0.00033258565587288003
 0.0006084989782096901 -0.00033258565587288003 0.0006084989782096901 -0.00033258565587288003 -0.0016229181267955082 0.010570030638523808 0.9843916281162076 -0.15605822262858104
 0.0006084989782096901 -0.00033258565587288003 0.0006084989782096901 -0.00033258565587288003 0.9843916281162076 -0.15605822262858104 -0.0016229181267955102 0.010570030638523797
450.0 -0.0015952848358435797 0.009393169974091377 0.9872823461249244 -0.13941072701826002 0.0006094824925190199 -0.00033400557613286674 0.0006094824925190199 -0.00033400557613286674
 0.9872823461249244 -0.13941072701826002 -0.0015952848358435799 0.009393169974091375 0.0006094824925190199 -0.00033400557613286674 0.0006094824925190199 -0.00033400557613286674
 0.0006094824925190199 -0.00033400557613286674 0.0006094824925190199 -0.00033400557613286674 -0.0016076148870021365 0.01056995910561229 0.9843562529615342 -0.15644219409162924
 0.0006094824925190199 -0.00033400557613286674 0.0006094824925190199 -0.00033400557613286674 0.9843562529615342 -0.15644219409162924 -0.0016076148870021389 0.010569959105612276
451.0 -0.0015820511446364026 0.009393286001960951 0.987256758866348 -0.13975311604809992 0.0006104635966511662 -0.00033542809958671217 0.0006104635966511662 -0.00033542809958671217
 0.987256758866348 -0.13975311604809992 -0.0015820511446364028 0.00939328600196095 0.0006104635966511662 -0.00033542809958671217 0.0006104635966511662 -0.00033542809958671217
 0.0006104635966511662 -0.00033542809958671217 0.0006104635966511662 -0.00033542809958671217 -0.0015923116472087646 0.010569887572700772 0.9843208778068608 -0.1568261655546774
 0.0006104635966511662 -0.00033542809958671217 0.0006104635966511662 -0.00033542809958671217 0.9843208778068608 -0.1568261655546774 -0.0015923116472087676 0.010569887572700755
452.0 -0.0015691171176781306 0.009393163190903416 0.9872300192731882 -0.14009566576698126 0.0006114422860276585 -0.0003368532226247197 0.0006114422860276585 -0.0003368532226247197
 0.9872300192731882 -0.14009566576698126 -0.0015691171176781308 0.009393163190903416 0.0006114422860276585 -0.0003368532226247197 0.0006114422860276585 -0.0003368532226247197
 0.0006114422860276585 -0.0003368532226247197 0.0006114422860276585 -0.0003368532226247197 -0.0015773490752757442 0.010569546440121046 0.9842841255973033 -0.15721029299781636
 0.0006114422860276585 -0.0003368532226247197 0.0006114422860276585 -0.0003368532226247197 0.9842841255973034 -0.1572102929978164 -0.0015773490752757468 0.010569546440121032
453.0 -0.0015561830907198588 0.009393040379845882 0.9872032796800284 -0.14043821548586258 0.0006124185560750795 -0.0003382809416302232 0.0006124185560750795 -0.0003382809416302232
 0.9872032796800284 -0.14043821548586258 -0.0015561830907198588 0.00939304037984588 0.0006124185560750795 -0.0003382809416302232 0.0006124185560750795 -0.0003382809416302232
 0.0006124185560750795 -0.0003382809416302232 0.0006124185560750795 -0.0003382809416302232 -0.001562386503342724 0.01056920530754132 0.9842473733877458 -0.15759442044095534
 0.0006124185560750795 -0.0003382809416302232 0.0006124185560750795 -0.0003382809416302232 0.9842473733877458 -0.15759442044095537 -0.0015623865033427262 0.010569205307541308
454.0 -0.0015432490637615867 0.009392917568788347 0.9871765400868686 -0.14078076520474392 0.0006133924022250756 -0.00033971125297959455 0.0006133924022250756 -0.00033971125297959455
 0.9871765400868687 -0.14078076520474392 -0.0015432490637615867 0.009392917568788347 0.0006133924022250756 -0.00033971125297959455 0.0006133924022250756 -0.00033971125297959455
 0.0006133924022250756 -0.00033971125297959455 0.0006133924022250756 -0.00033971125297959455 -0.0015474239314097037 0.010568864174961595 0.9842106211781882 -0.1579785478840943
 0.0006133924022250756 -0.00033971125297959455 0.0006133924022250756 -0.00033971125297959455 0.9842106211781884 -0.15797854788409432 -0.0015474239314097055 0.010568864174961586
455.0 -0.0015303150368033147 0.009392794757730813 0.9871498004937088 -0.14112331492362523 0.0006143638199143662 -0.0003411441530422492 0.0006143638199143662 -0.0003411441530422492
 0.9871498004937089 -0.14112331492362523 -0.0015303150368033147 0.009392794757730813 0.0006143638199143662 -0.0003411441530422492 0.0006143638199143662 -0.0003411441530422492
 0.0006143638199143662 -0.0003411441530422492 0.0006143638199143662 -0.0003411441530422492 -0.0015324613594766834 0.010568523042381869 0.9841738689686308 -0.15836267532723325
 0.0006143638199143662 -0.0003411441530422492 0.0006143638199143662 -0.0003411441530422492 0.9841738689686309 -0.1583626753272333 -0.0015324613594766847 0.010568523042381862
456.0 -0.0015174109912054808 0.009392648597140035 0.9871229458605733 -0.1414658793726115 0.0006153328045847534 -0.0003425796381806543 0.0006153328045847534 -0.0003425796381806543
 0.9871229458605734 -0.1414658793726115 -0.0015174109912054808 0.009392648597140035 0.0006153328045847534 -0.0003425796381806543 0.0006153328045847534 -0.0003425796381806543
 0.0006153328045847534 -0.0003425796381806543 0.0006153328045847534 -0.0003425796381806543 -0.0015175328805002105 0.010568155571037751 0.9841369792813509 -0.158746816801121
 0.0006153328045847534 -0.0003425796381806543 0.0006153328045847534 -0.0003425796381806543 0.984136979281351 -0.15874681680112104 -0.0015175328805002114 0.010568155571037748
457.0 -0.0015047767778515885 0.00939229229075007 0.987095055867656 -0.14180857639254235 0.0006162993516831333 -0.0003440177047503349 0.0006162993516831333 -0.0003440177047503349
 0.9870950558676562 -0.14180857639254235 -0.0015047767778515885 0.00939229229075007 0.0006162993516831333 -0.0003440177047503349 0.0006162993516831333 -0.0003440177047503349
 0.0006162993516831333 -0.0003440177047503349 0.0006162993516831333 -0.0003440177047503349 -0.0015029112381326644 0.010567551050814115 0.9840988522945694 -0.15913108455174757
 0.0006162993516831333 -0.0003440177047503349 0.0006162993516831333 -0.0003440177047503349 0.9840988522945695 -0.15913108455174763 -0.0015029112381326653 0.010567551050814111
458.0 -0.001492142564497696 0.009391935984360104 0.9870671658747389 -0.14215127341247316 0.0006172634566615032 -0.0003454583490998804 0.0006172634566615032 -0.0003454583490998804
 0.987067165874739 -0.1421512734124732 -0.001492142564497696 0.009391935984360104 0.0006172634566615032 -0.0003454583490998804 0.0006172634566615032 -0.0003454583490998804
 0.0006172634566615032 -0.0003454583490998804 0.0006172634566615032 -0.0003454583490998804 -0.001488289595765118 0.010566946530590478 0.9840607253077879 -0.15951535230237418
 0.0006172634566615032 -0.0003454583490998804 0.0006172634566615032 -0.0003454583490998804 0.984060725307788 -0.1595153523023742 -0.0014882895957651192 0.010566946530590473
459.0 -0.0014795083511438037 0.009391579677970137 0.9870392758818216 -0.142493970432404 0.0006182251149769743 -0.00034690156757095236 0.0006182251149769743 -0.00034690156757095236
 0.9870392758818217 -0.14249397043240403 -0.0014795083511438037 0.009391579677970137 0.0006182251149769743 -0.00034690156757095236 0.0006182251149769743 -0.00034690156757095236
 0.0006182251149769743 -0.00034690156757095236 0.0006182251149769743 -0.00034690156757095236 -0.001473667953397572 0.010566342010366844 0.9840225983210064 -0.15989962005300076
 0.0006182251149769743 -0.00034690156757095236 0.0006182251149769743 -0.00034690156757095236 0.9840225983210066 -0.1598996200530008 -0.001473667953397573 0.010566342010366837
460.0 -0.0014668741377899114 0.009391223371580172 0.9870113858889044 -0.14283666745233484 0.000619184322091779 -0.0003483473564982905 0.000619184322091779 -0.0003483473564982905
 0.9870113858889046 -0.14283666745233486 -0.0014668741377899114 0.009391223371580172 0.000619184322091779 -0.0003483473564982905 0.000619184322091779 -0.0003483473564982905
 0.000619184322091779 -0.0003483473564982905 0.000619184322091779 -0.0003483473564982905 -0.0014590463110300258 0.010565737490143208 0.9839844713342248 -0.16028388780362735
 0.000619184322091779 -0.0003483473564982905 0.000619184322091779 -0.0003483473564982905 0.9839844713342251 -0.1602838878036274 -0.001459046311030027 0.010565737490143199
461.0 -0.001454299622981224 0.00939082163190906 0.9869832652812913 -0.14317938900647006 0.0006201410734732819 -0.00034979571220972 0.0006201410734732819 -0.00034979571220972
 0.9869832652812915 -0.1431793890064701 -0.001454299622981224 0.00939082163190906 0.0006201410734732819 -0.00034979571220972 0.0006201410734732819 -0.00034979571220972
 0.0006201410734732819 -0.00034979571220972 0.0006201410734732819 -0.00034979571220972 -0.001444492574532168 0.010565081748556353 0.9839460688602792 -0.16066817793735078
 0.0006201410734732819 -0.00034979571220972 0.0006201410734732819 -0.00034979571220972 0.9839460688602794 -0.1606681779373508 -0.0014444925745321694 0.010565081748556344
462.0 -0.0014419639023533558 0.009390238159113362 0.9869542222148949 -0.14352220869742296 0.0006210953645939902 -0.00035124663102615813 0.0006210953645939902 -0.00035124663102615813
 0.986954222214895 -0.143522208697423 -0.001441963902353356 0.00939023815911336 0.0006210953645939902 -0.00035124663102615813 0.0006210953645939902 -0.00035124663102615813
 0.0006210953645939902 -0.00035124663102615813 0.0006210953645939902 -0.00035124663102615813 -0.0014302104615130646 0.010564221121516624 0.9839065644376769 -0.16105255760346146
 0.0006210953645939902 -0.00035124663102615813 0.0006210953645939902 -0.00035124663102615813 0.9839065644376771 -0.16105255760346146 -0.0014302104615130662 0.010564221121516613
463.0 -0.0014296281817254876 0.009389654686317665 0.9869251791484984 -0.14386502838837587 0.0006220471909315617 -0.0003527001092616216 0.0006220471909315617 -0.0003527001092616216
 0.9869251791484985 -0.14386502838837587 -0.0014296281817254882 0.009389654686317661 0.0006220471909315617 -0.0003527001092616216 0.0006220471909315617 -0.0003527001092616216
 0.0006220471909315617 -0.0003527001092616216 0.0006220471909315617 -0.0003527001092616216 -0.0014159283484939614 0.010563360494476894 0.9838670600150746 -0.16143693726957212
 0.0006220471909315617 -0.0003527001092616216 0.0006220471909315617 -0.0003527001092616216 0.9838670600150747 -0.16143693726957214 -0.0014159283484939632 0.010563360494476884
464.0 -0.0014172924610976196 0.009389071213521968 0.986896136082102 -0.14420784807932874 0.0006229965479688163 -0.00035415614322323313 0.0006229965479688163 -0.00035415614322323313
 0.9868961360821021 -0.14420784807932877 -0.0014172924610976203 0.009389071213521963 0.0006229965479688163 -0.00035415614322323313 0.0006229965479688163 -0.00035415614322323313
 0.0006229965479688163 -0.00035415614322323313 0.0006229965479688163 -0.00035415614322323313 -0.001401646235474858 0.010562499867437165 0.9838275555924723 -0.1618213169356828
 0.0006229965479688163 -0.00035415614322323313 0.0006229965479688163 -0.00035415614322323313 0.9838275555924724 -0.1618213169356828 -0.00140164623547486 0.010562499867437153
465.0 -0.0014049567404697514 0.00938848774072627 0.9868670930157056 -0.14455066777028164 0.0006239434311937447 -0.00035561472921122816 0.0006239434311937447 -0.00035561472921122816
 0.9868670930157056 -0.14455066777028164 -0.0014049567404697523 0.009388487740726264 0.0006239434311937447 -0.00035561472921122816 0.0006239434311937447 -0.00035561472921122816
 0.0006239434311937447 -0.00035561472921122816 0.0006239434311937447 -0.00035561472921122816 -0.0013873641224557546 0.010561639240397436 0.98378805116987 -0.1622056966017935
 0.0006239434311937447 -0.00035561472921122816 0.0006239434311937447 -0.00035561472921122816 0.98378805116987 -0.1622056966017935 -0.0013873641224557568 0.010561639240397424
466.0 -0.0013927105972270585 0.009387837534897806 0.9868377072450334 -0.14489352080934342 0.000624887836099518 -0.0003570758635189622 0.000624887836099518 -0.0003570758635189622
 0.9868377072450334 -0.14489352080934342 -0.0013927105972270594 0.009387837534897801 0.000624887836099518 -0.0003570758635189622 0.000624887836099518 -0.0003570758635189622
 0.000624887836099518 -0.0003570758635189622 0.000624887836099518 -0.0003570758635189622 -0.0013731839294298977 0.010560703439928057 0.9837481371605566 -0.16259010582621453
 0.000624887836099518 -0.0003570758635189622 0.000624887836099518 -0.0003570758635189622 0.9837481371605566 -0.16259010582621453 -0.0013731839294298998 0.010560703439928045
467.0 -0.0013806734678831073 0.009387031618659556 0.9868075218310508 -0.14523645166065927 0.0006258297581844987 -0.0003585395424329179 0.0006258297581844987 -0.0003585395424329179
 0.9868075218310508 -0.14523645166065927 -0.0013806734678831077 0.009387031618659553 0.0006258297581844987 -0.0003585395424329179 0.0006258297581844987 -0.0003585395424329179
 0.0006258297581844987 -0.0003585395424329179 0.0006258297581844987 -0.0003585395424329179 -0.0013592415497216156 0.010559592234789496 0.9837072674489176 -0.1629745840200264
 0.0006258297581844987 -0.0003585395424329179 0.0006258297581844987 -0.0003585395424329179 0.9837072674489177 -0.1629745840200264 -0.0013592415497216176 0.010559592234789484
468.0 -0.0013686363385391562 0.009386225702421305 0.9867773364170683 -0.1455793825119751 0.0006267691929522488 -0.0003600057622327115 0.0006267691929522488 -0.0003600057622327115
 0.9867773364170683 -0.1455793825119751 -0.0013686363385391562 0.009386225702421305 0.0006267691929522488 -0.0003600057622327115 0.0006267691929522488 -0.0003600057622327115
 0.0006267691929522488 -0.0003600057622327115 0.0006267691929522488 -0.0003600057622327115 -0.0013452991700133336 0.010558481029650936 0.9836663977372786 -0.1633590622138383
 0.0006267691929522488 -0.0003600057622327115 0.0006267691929522488 -0.0003600057622327115 0.9836663977372786 -0.1633590622138383 -0.0013452991700133355 0.010558481029650924
469.0 -0.001356599209195205 0.009385419786183053 0.9867471510030857 -0.14592231336329095 0.0006277061359115407 -0.0003614745191911 0.0006277061359115407 -0.0003614745191911
 0.9867471510030857 -0.14592231336329095 -0.0013565992091952048 0.009385419786183057 0.0006277061359115407 -0.0003614745191911 0.0006277061359115407 -0.0003614745191911
 0.0006277061359115407 -0.0003614745191911 0.0006277061359115407 -0.0003614745191911 -0.0013313567903050518 0.010557369824512374 0.9836255280256395 -0.16374354040765018
 0.0006277061359115407 -0.0003614745191911 0.0006277061359115407 -0.0003614745191911 0.9836255280256395 -0.16374354040765018 -0.0013313567903050535 0.010557369824512363
470.0 -0.001344562079851254 0.009384613869944802 0.9867169655891033 -0.1462652442146068 0.0006286405825763667 -0.00036294580957398846 0.0006286405825763667 -0.00036294580957398846
 0.9867169655891033 -0.1462652442146068 -0.001344562079851253 0.009384613869944807 0.0006286405825763667 -0.00036294580957398846 0.0006286405825763667 -0.00036294580957398846
 0.0006286405825763667 -0.00036294580957398846 0.0006286405825763667 -0.00036294580957398846 -0.0013174144105967697 0.010556258619373813 0.9835846583140004 -0.16412801860146206
 0.0006286405825763667 -0.00036294580957398846 0.0006286405825763667 -0.00036294580957398846 0.9835846583140005 -0.16412801860146206 -0.0013174144105967713 0.010556258619373805
471.0 -0.0013326439041935543 0.009383721479907034 0.9866863210791507 -0.14660821193217966 0.0006295725284659476 -0.00036441962964043674 0.0006295725284659476 -0.00036441962964043674
 0.9866863210791507 -0.14660821193217966 -0.0013326439041935533 0.009383721479907039 0.0006295725284659476 -0.00036441962964043674 0.0006295725284659476 -0.00036441962964043674
 0.0006295725284659476 -0.00036441962964043674 0.0006295725284659476 -0.00036441962964043674 -0.0013036074073879802 0.010555050064481972 0.9835432401709483 -0.16451252735889624
 0.0006295725284659476 -0.00036441962964043674 0.0006295725284659476 -0.00036441962964043674 0.9835432401709484 -0.16451252735889624 -0.0013036074073879817 0.010555050064481963
472.0 -0.0013209041590652318 0.009382699379169987 0.9866549879252431 -0.14695123494913806 0.0006305019691047444 -0.0003658959756426663 0.0006305019691047444 -0.0003658959756426663
 0.9866549879252431 -0.14695123494913806 -0.001320904159065231 0.00938269937916999 0.0006305019691047444 -0.0003658959756426663 0.0006305019691047444 -0.0003658959756426663
 0.0006305019691047444 -0.0003658959756426663 0.0006305019691047444 -0.0003658959756426663 -0.0012900034689284291 0.010553695484960213 0.9835009993807764 -0.1648970819617638
 0.0006305019691047444 -0.0003658959756426663 0.0006305019691047444 -0.0003658959756426663 0.9835009993807765 -0.1648970819617638 -0.0012900034689284307 0.010553695484960204
473.0 -0.0013091644139369093 0.009381677278432938 0.9866236547713355 -0.14729425796609646 0.0006314289000224658 -0.0003673748438260679 0.0006314289000224658 -0.0003673748438260679
 0.9866236547713355 -0.14729425796609646 -0.0013091644139369087 0.009381677278432941 0.0006314289000224658 -0.0003673748438260679 0.0006314289000224658 -0.0003673748438260679
 0.0006314289000224658 -0.0003673748438260679 0.0006314289000224658 -0.0003673748438260679 -0.0012763995304688784 0.010552340905438452 0.9834587585906046 -0.16528163656463138
 0.0006314289000224658 -0.0003673748438260679 0.0006314289000224658 -0.0003673748438260679 0.9834587585906046 -0.16528163656463138 -0.0012763995304688799 0.010552340905438443
474.0 -0.0012974246688085868 0.009380655177695891 0.9865923216174279 -0.14763728098305487 0.0006323533167540796 -0.0003688562304292077 0.0006323533167540796 -0.0003688562304292077
 0.9865923216174279 -0.14763728098305487 -0.0012974246688085864 0.009380655177695893 0.0006323533167540796 -0.0003688562304292077 0.0006323533167540796 -0.0003688562304292077
 0.0006323533167540796 -0.0003688562304292077 0.0006323533167540796 -0.0003688562304292077 -0.0012627955920093273 0.010550986325916691 0.9834165178004327 -0.16566619116749898
 0.0006323533167540796 -0.0003688562304292077 0.0006323533167540796 -0.0003688562304292077 0.9834165178004328 -0.16566619116749898 -0.0012627955920093289 0.010550986325916683
475.0 -0.0012856849236802643 0.009379633076958844 0.9865609884635204 -0.14798030400001327 0.0006332752148398215 -0.0003703401316838355 0.0006332752148398215 -0.0003703401316838355
 0.9865609884635204 -0.14798030400001327 -0.001285684923680264 0.009379633076958844 0.0006332752148398215 -0.0003703401316838355 0.0006332752148398215 -0.0003703401316838355
 0.0006332752148398215 -0.0003703401316838355 0.0006332752148398215 -0.0003703401316838355 -0.0012491916535497766 0.01054963174639493 0.9833742770102609 -0.16605074577036655
 0.0006332752148398215 -0.0003703401316838355 0.0006332752148398215 -0.0003703401316838355 0.9833742770102609 -0.16605074577036655 -0.001249191653549778 0.010549631746394922
476.0 -0.0012740938057512947 0.009378505128582475 0.9865290874366712 -0.14832336622248718 0.0006341945898252044 -0.0003718265438148906 0.0006341945898252044 -0.0003718265438148906
 0.9865290874366713 -0.14832336622248718 -0.0012740938057512947 0.009378505128582475 0.0006341945898252044 -0.0003718265438148906 0.0006341945898252044 -0.0003718265438148906
 0.0006341945898252044 -0.0003718265438148906 0.0006341945898252044 -0.0003718265438148906 -0.0012357569073825174 0.010548158111993392 0.9833313575042181 -0.16643533063995206
 0.0006341945898252044 -0.0003718265438148906 0.0006341945898252044 -0.0003718265438148906 0.9833313575042181 -0.16643533063995206 -0.0012357569073825191 0.010548158111993382
477.0 -0.0012626513150216778 0.009377271332566784 0.9864966185368806 -0.14866646765047656 0.0006351114372610295 -0.00037331546304050973 0.0006351114372610295 -0.00037331546304050973
 0.9864966185368806 -0.14866646765047653 -0.0012626513150216778 0.009377271332566784 0.0006351114372610295 -0.00037331546304050973 0.0006351114372610295 -0.00037331546304050973
 0.0006351114372610295 -0.00037331546304050973 0.0006351114372610295 -0.00037331546304050973 -0.0012224913535075503 0.010546565422712074 0.9832877592823043 -0.1668199457762555
 0.0006351114372610295 -0.00037331546304050973 0.0006351114372610295 -0.00037331546304050973 0.9832877592823043 -0.1668199457762555 -0.0012224913535075525 0.010546565422712062
478.0 -0.001251208824292061 0.009376037536551092 0.9864641496370902 -0.1490095690784659 0.0006360257527033941 -0.00037480688557203377 0.0006360257527033941 -0.00037480688557203377
 0.9864641496370901 -0.1490095690784659 -0.001251208824292061 0.009376037536551092 0.0006360257527033941 -0.00037480688557203377 0.0006360257527033941 -0.00037480688557203377
 0.0006360257527033941 -0.00037480688557203377 0.0006360257527033941 -0.00037480688557203377 -0.0012092257996325832 0.010544972733430757 0.9832441610603906 -0.16720456091255895
 0.0006360257527033941 -0.00037480688557203377 0.0006360257527033941 -0.00037480688557203377 0.9832441610603906 -0.16720456091255895 -0.0012092257996325856 0.010544972733430743
479.0 -0.0012397663335624442 0.009374803740535401 0.9864316807372996 -0.1493526705064553 0.0006369375317137023 -0.000376300807614015 0.0006369375317137023 -0.000376300807614015
 0.9864316807372994 -0.14935267050645526 -0.0012397663335624442 0.009374803740535401 0.0006369375317137023 -0.000376300807614015 0.0006369375317137023 -0.000376300807614015
 0.0006369375317137023 -0.000376300807614015 0.0006369375317137023 -0.000376300807614015 -0.0011959602457576161 0.010543380044149439 0.9832005628384768 -0.1675891760488624
 0.0006369375317137023 -0.000376300807614015 0.0006369375317137023 -0.000376300807614015 0.9832005628384768 -0.1675891760488624 -0.0011959602457576187 0.010543380044149423
480.0 -0.0012283238428328273 0.00937356994451971 0.986399211837509 -0.14969577193444467 0.0006378467698586747 -0.0003777972253642241 0.0006378467698586747 -0.0003777972253642241
 0.9863992118375088 -0.14969577193444464 -0.0012283238428328273 0.00937356994451971 0.0006378467698586747 -0.0003777972253642241 0.0006378467698586747 -0.0003777972253642241
 0.0006378467698586747 -0.0003777972253642241 0.0006378467698586747 -0.0003777972253642241 -0.001182694691882649 0.010541787354868121 0.983156964616563 -0.16797379118516584
 0.0006378467698586747 -0.0003777972253642241 0.0006378467698586747 -0.0003777972253642241 0.983156964616563 -0.16797379118516584 -0.001182694691882652 0.010541787354868104
481.0 -0.0012170591970371383 0.009372212056974309 0.9863660635327169 -0.15003890990877003 0.0006387534627103572 -0.0003792961350136576 0.0006387534627103572 -0.0003792961350136576
 0.9863660635327167 -0.15003890990877003 -0.001217059197037138 0.00937221205697431 0.0006387534627103572 -0.0003792961350136576 0.0006387534627103572 -0.0003792961350136576
 0.0006387534627103572 -0.0003792961350136576 0.0006387534627103572 -0.0003792961350136576 -0.001169631646140897 0.010540055203285117 0.9831125543913769 -0.16835843048858307
 0.0006387534627103572 -0.0003792961350136576 0.0006387534627103572 -0.0003792961350136576 0.9831125543913769 -0.16835843048858307 -0.0011696316461408994 0.010540055203285102
482.0 -0.0012059131145307348 0.009370771441742434 0.9863324622912573 -0.15038207224731942 0.0006396576058461317 -0.00038079753274654446 0.0006396576058461317 -0.00038079753274654446
 0.986332462291257 -0.15038207224731942 -0.0012059131145307342 0.009370771441742438 0.0006396576058461317 -0.00038079753274654446 0.0006396576058461317 -0.00038079753274654446
 0.0006396576058461317 -0.00038079753274654446 0.0006396576058461317 -0.00038079753274654446 -0.0011567036058212883 0.010538230076834321 0.983067602830676 -0.1687430859034095
 0.0006396576058461317 -0.00038079753274654446 0.0006396576058461317 -0.00038079753274654446 0.9830676028306758 -0.16874308590340947 -0.0011567036058212899 0.010538230076834312
483.0 -0.0011947670320243311 0.00936933082651056 0.9862988610497976 -0.1507252345858688 0.0006405591948487245 -0.0003823014147403538 0.0006405591948487245 -0.0003823014147403538
 0.9862988610497975 -0.1507252345858688 -0.0011947670320243302 0.009369330826510563 0.0006405591948487245 -0.0003823014147403538 0.0006405591948487245 -0.0003823014147403538
 0.0006405591948487245 -0.0003823014147403538 0.0006405591948487245 -0.0003823014147403538 -0.0011437755655016796 0.010536404950383526 0.983022651269975 -0.16912774131823594
 0.0006405591948487245 -0.0003823014147403538 0.0006405591948487245 -0.0003823014147403538 0.9830226512699749 -0.16912774131823588 -0.0011437755655016803 0.010536404950383523
484.0 -0.0011836209495179274 0.009367890211278684 0.9862652598083379 -0.1510683969244182 0.0006414582253062164 -0.00038380777716580177 0.0006414582253062164 -0.00038380777716580177
 0.9862652598083379 -0.1510683969244182 -0.0011836209495179263 0.009367890211278691 0.0006414582253062164 -0.00038380777716580177 0.0006414582253062164 -0.00038380777716580177
 0.0006414582253062164 -0.00038380777716580177 0.0006414582253062164 -0.00038380777716580177 -0.001130847525182071 0.010534579823932732 0.9829776997092741 -0.16951239673306234
 0.0006414582253062164 -0.00038380777716580177 0.0006414582253062164 -0.00038380777716580177 0.9829776997092738 -0.16951239673306231 -0.0011308475251820705 0.010534579823932733
485.0 -0.001172474867011524 0.00936644959604681 0.9862316585668781 -0.15141155926296757 0.0006423546928120531 -0.0003853166161868589 0.0006423546928120531 -0.0003853166161868589
 0.9862316585668782 -0.1514115592629676 -0.0011724748670115224 0.009366449596046818 0.0006423546928120531 -0.0003853166161868589 0.0006423546928120531 -0.0003853166161868589
 0.0006423546928120531 -0.0003853166161868589 0.0006423546928120531 -0.0003853166161868589 -0.0011179194848624622 0.010532754697481937 0.9829327481485731 -0.16989705214788878
 0.0006423546928120531 -0.0003853166161868589 0.0006423546928120531 -0.0003853166161868589 0.9829327481485729 -0.16989705214788872 -0.001117919484862461 0.010532754697481944
486.0 -0.0011615351327752873 0.009364867965099284 0.9861972643279776 -0.15175475373809075 0.0006432485929650529 -0.0003868279279607569 0.0006432485929650529 -0.0003868279279607569
 0.9861972643279777 -0.15175475373809078 -0.0011615351327752862 0.009364867965099291 0.0006432485929650529 -0.0003868279279607569 0.0006432485929650529 -0.0003868279279607569
 0.0006432485929650529 -0.0003868279279607569 0.0006432485929650529 -0.0003868279279607569 -0.001105226468504313 0.01053077120769224 0.9828868490115229 -0.17028172348597487
 0.0006432485929650529 -0.0003868279279607569 0.0006432485929650529 -0.0003868279279607569 0.9828868490115227 -0.1702817234859748 -0.0011052264685043121 0.010530771207692245
487.0 -0.0011506838335119795 0.009363225898845052 0.986162530233031 -0.1520979619860313 0.000644139921369418 -0.0003883417086379965 0.000644139921369418 -0.0003883417086379965
 0.986162530233031 -0.15209796198603132 -0.001150683833511979 0.009363225898845053 0.000644139921369418 -0.0003883417086379965 0.000644139921369418 -0.0003883417086379965
 0.000644139921369418 -0.0003883417086379965 0.000644139921369418 -0.0003883417086379965 -0.001092634176701075 0.010528719847900155 0.9828405437703231 -0.17066640164831512
 0.000644139921369418 -0.0003883417086379965 0.000644139921369418 -0.0003883417086379965 0.9828405437703229 -0.17066640164831506 -0.001092634176701075 0.010528719847900155
488.0 -0.0011398325342486717 0.009361583832590819 0.9861277961380843 -0.1524411702339718 0.0006450286736347431 -0.0003898579543623544 0.0006450286736347431 -0.0003898579543623544
 0.9861277961380844 -0.15244117023397183 -0.001139832534248672 0.009361583832590817 0.0006450286736347431 -0.0003898579543623544 0.0006450286736347431 -0.0003898579543623544
 0.0006450286736347431 -0.0003898579543623544 0.0006450286736347431 -0.0003898579543623544 -0.001080041884897837 0.010526668488108072 0.9827942385291234 -0.17105107981065537
 0.0006450286736347431 -0.0003898579543623544 0.0006450286736347431 -0.0003898579543623544 0.9827942385291232 -0.17105107981065532 -0.0010800418848978378 0.010526668488108066
489.0 -0.0011289812349853639 0.009359941766336586 0.9860930620431377 -0.15278437848191234 0.0006459148453760249 -0.00039137666127089034 0.0006459148453760249 -0.00039137666127089034
 0.9860930620431377 -0.15278437848191234 -0.0011289812349853645 0.009359941766336581 0.0006459148453760249 -0.00039137666127089034 0.0006459148453760249 -0.00039137666127089034
 0.0006459148453760249 -0.00039137666127089034 0.0006459148453760249 -0.00039137666127089034 -0.001067449593094599 0.010524617128315988 0.9827479332879236 -0.17143575797299562
 0.0006459148453760249 -0.00039137666127089034 0.0006459148453760249 -0.00039137666127089034 0.9827479332879233 -0.17143575797299557 -0.0010674495930946008 0.010524617128315976
490.0 -0.001118129935722056 0.009358299700082352 0.986058327948191 -0.15312758672985285 0.0006467984322136725 -0.00039289782549395435 0.0006467984322136725 -0.00039289782549395435
 0.9860583279481911 -0.15312758672985285 -0.0011181299357220574 0.009358299700082345 0.0006467984322136725 -0.00039289782549395435 0.0006467984322136725 -0.00039289782549395435
 0.0006467984322136725 -0.00039289782549395435 0.0006467984322136725 -0.00039289782549395435 -0.0010548573012913612 0.010522565768523904 0.9827016280467239 -0.17182043613533587
 0.0006467984322136725 -0.00039289782549395435 0.0006467984322136725 -0.00039289782549395435 0.9827016280467236 -0.17182043613533582 -0.0010548573012913638 0.010522565768523888
491.0 -0.0011075146032138105 0.009356499468521426 0.9860226950104711 -0.1534708206155884 0.0006476794297735157 -0.00039442144315519456 0.0006476794297735157 -0.00039442144315519456
 0.9860226950104711 -0.1534708206155884 -0.0011075146032138116 0.00935649946852142 0.0006476794297735157 -0.00039442144315519456 0.0006476794297735157 -0.00039442144315519456
 0.0006476794297735157 -0.00039442144315519456 0.0006476794297735157 -0.00039442144315519456 -0.0010425338352545884 0.010520336968819391 0.98265424839693 -0.172205119664423
 0.0006476794297735157 -0.00039442144315519456 0.0006476794297735157 -0.00039442144315519456 0.9826542483969297 -0.17220511966442295 -0.0010425338352545905 0.010520336968819377
492.0 -0.0010969582623943303 0.009354659695633826 0.9859868373620579 -0.1538140609107727 0.0006485578336868151 -0.00039594751037156354 0.0006485578336868151 -0.00039594751037156354
 0.9859868373620579 -0.1538140609107727 -0.001096958262394331 0.009354659695633823 0.0006485578336868151 -0.00039594751037156354 0.0006485578336868151 -0.00039594751037156354
 0.0006485578336868151 -0.00039594751037156354 0.0006485578336868151 -0.00039594751037156354 -0.001030277575659432 0.01051806380913677 0.9826066001449876 -0.17258980453519682
 0.0006485578336868151 -0.00039594751037156354 0.0006485578336868151 -0.00039594751037156354 0.9826066001449874 -0.1725898045351968 -0.0010302775756594333 0.010518063809136764
493.0 -0.0010864019215748501 0.009352819922746225 0.9859509797136446 -0.154157301205957 0.0006494336395902722 -0.0003974760232533267 0.0006494336395902722 -0.0003974760232533267
 0.9859509797136446 -0.154157301205957 -0.0010864019215748506 0.009352819922746225 0.0006494336395902722 -0.0003974760232533267 0.0006494336395902722 -0.0003974760232533267
 0.0006494336395902722 -0.0003974760232533267 0.0006494336395902722 -0.0003974760232533267 -0.0010180213160642755 0.01051579064945415 0.9825589518930452 -0.17297448940597066
 0.0006494336395902722 -0.0003974760232533267 0.0006494336395902722 -0.0003974760232533267 0.982558951893045 -0.17297448940597063 -0.001018021316064276 0.010515790649454149
494.0 -0.0010758455807553702 0.009350980149858626 0.9859151220652315 -0.1545005415011413 0.0006503068431260372 -0.0003990069779040683 0.0006503068431260372 -0.0003990069779040683
 0.9859151220652315 -0.1545005415011413 -0.00107584558075537 0.009350980149858627 0.0006503068431260372 -0.0003990069779040683 0.0006503068431260372 -0.0003990069779040683
 0.0006503068431260372 -0.0003990069779040683 0.0006503068431260372 -0.0003990069779040683 -0.0010057650564691191 0.010513517489771532 0.9825113036411028 -0.1733591742767445
 0.0006503068431260372 -0.0003990069779040683 0.0006503068431260372 -0.0003990069779040683 0.9825113036411026 -0.17335917427674447 -0.0010057650564691187 0.010513517489771534
495.0 -0.00106528923993589 0.009349140376971024 0.9858792644168182 -0.1548437817963256 0.0006511774399417204 -0.0004005403704207004 0.0006511774399417204 -0.0004005403704207004
 0.9858792644168182 -0.1548437817963256 -0.0010652892399358894 0.00934914037697103 0.0006511774399417204 -0.0004005403704207004 0.0006511774399417204 -0.0004005403704207004
 0.0006511774399417204 -0.0004005403704207004 0.0006511774399417204 -0.0004005403704207004 -0.0009935087968739626 0.010511244330088912 0.9824636553891605 -0.17374385914751833
 0.0006511774399417204 -0.0004005403704207004 0.0006511774399417204 -0.0004005403704207004 0.9824636553891603 -0.1737438591475183 -0.0009935087968739613 0.010511244330088921
496.0 -0.0010549963715857386 0.00934712764469698 0.9858423961687282 -0.15518703536524064 0.0006520454256904003 -0.0004020761968934685 0.0006520454256904003 -0.0004020761968934685
 0.9858423961687282 -0.15518703536524064 -0.0010549963715857386 0.009347127644696982 0.0006520454256904003 -0.0004020761968934685 0.0006520454256904003 -0.0004020761968934685
 0.0006520454256904003 -0.0004020761968934685 0.0006520454256904003 -0.0004020761968934685 -0.0009815527752633341 0.010508777286537622 0.9824147993805549 -0.17412853198160214
 0.0006520454256904003 -0.0004020761968934685 0.0006520454256904003 -0.0004020761968934685 0.9824147993805546 -0.17412853198160214 -0.0009815527752633337 0.010508777286537626
497.0 -0.0010447327779544017 0.009345095694713331 0.985805415631785 -0.15553029040901464 0.0006529107960306336 -0.00040361445340595997 0.0006529107960306336 -0.00040361445340595997
 0.985805415631785 -0.15553029040901467 -0.0010447327779544021 0.00934509569471333 0.0006529107960306336 -0.00040361445340595997 0.0006529107960306336 -0.00040361445340595997
 0.0006529107960306336 -0.00040361445340595997 0.0006529107960306336 -0.00040361445340595997 -0.0009696301134287644 0.010506288700334258 0.9823658091767645 -0.17451320347827595
 0.0006529107960306336 -0.00040361445340595997 0.0006529107960306336 -0.00040361445340595997 0.9823658091767644 -0.17451320347827592 -0.0009696301134287647 0.010506288700334257
498.0 -0.0010344691843230645 0.009343063744729681 0.9857684350948419 -0.15587354545278867 0.0006537735466264645 -0.00040515513603511116 0.0006537735466264645 -0.00040515513603511116
 0.9857684350948419 -0.15587354545278867 -0.0010344691843230656 0.009343063744729676 0.0006537735466264645 -0.00040515513603511116 0.0006537735466264645 -0.00040515513603511116
 0.0006537735466264645 -0.00040515513603511116 0.0006537735466264645 -0.00040515513603511116 -0.0009577074515941946 0.010503800114130895 0.9823168189729742 -0.17489787497494977
 0.0006537735466264645 -0.00040515513603511116 0.0006537735466264645 -0.00040515513603511116 0.9823168189729741 -0.17489787497494974 -0.0009577074515941959 0.010503800114130888
499.0 -0.0010242055906917276 0.009341031794746033 0.9857314545578988 -0.15621680049656267 0.0006546336731474344 -0.00040669824085121456 0.0006546336731474344 -0.00040669824085121456
 0.9857314545578989 -0.1562168004965627 -0.001024205590691729 0.009341031794746024 0.0006546336731474344 -0.00040669824085121456 0.0006546336731474344 -0.00040669824085121456
 0.0006546336731474344 -0.00040669824085121456 0.0006546336731474344 -0.00040669824085121456 -0.0009457847897596249 0.01050131152792753 0.9822678287691838 -0.17528254647162356
 0.0006546336731474344 -0.00040669824085121456 0.0006546336731474344 -0.00040669824085121456 0.9822678287691838 -0.17528254647162356 -0.0009457847897596269 0.010501311527927519
500.0 -0.0010139419970603904 0.009338999844762382 0.9856944740209557 -0.1565600555403367 0.0006554911712685908 -0.00040824376391792623 0.0006554911712685908 -0.00040824376391792623
 0.9856944740209558 -0.15656005554033672 -0.0010139419970603926 0.00933899984476237 0.0006554911712685908 -0.00040824376391792623 0.0006554911712685908 -0.00040824376391792623
 0.0006554911712685908 -0.00040824376391792623 0.0006554911712685908 -0.00040824376391792623 -0.000933862127925055 0.010498822941724167 0.9822188385653935 -0.17566721796829737
 0.0006554911712685908 -0.00040824376391792623 0.0006554911712685908 -0.00040824376391792623 0.9822188385653935 -0.17566721796829737 -0.0009338621279250581 0.01049882294172415
