! Created with skrf 2.1.0 (http://scikit-rf.org).
# Hz S RI R 50.0 
!freq ReS11 ImS11 ReS21 ImS21 ReS12 ImS12 ReS22 ImS22
10000000.0 -0.010898196142493167 0.0004981298073719277 0.981027351544311 -0.003202925981032364 0.9810273515443105 -0.0032029259810323622 -0.010898196142493167 0.0004981298073719278
14900000.0 -0.010885493809055432 0.0007417463927266502 0.9810419648263626 -0.004773185231616448 0.9810419648263626 -0.004773185231616448 -0.010885493809055432 0.0007417463927266502
19800000.0 -0.010867827354010475 0.0009848128537228583 0.9810622448660095 -0.006344418304643284 0.9810622448660098 -0.0063444183046432855 -0.010867827354010475 0.000984812853722859
24700000.0 -0.010845218223276382 0.001227150232032896 0.9810881889286792 -0.00791693887188128 0.9810881889286792 -0.00791693887188128 -0.010845218223276382 0.0012271502320328955
29600000.0 -0.010817707605947907 0.0014685819862040777 0.9811196834433378 -0.009491066292103025 0.9811196834433381 -0.009491066292103027 -0.010817707605947907 0.0014685819862040783
34500000.0 -0.010785339868357903 0.0017089332339670135 0.9811566899999409 -0.01106710259238648 0.9811566899999409 -0.01106710259238648 -0.010785339868357903 0.0017089332339670139
39400000.0 -0.01074816661381613 0.0019480325220017634 0.9811990830440956 -0.012645356321289275 0.9811990830440954 -0.012645356321289273 -0.01074816661381613 0.0019480325220017644
44300000.0 -0.010706251433163231 0.0021857106107935893 0.9812467654841993 -0.014226127270762492 0.9812467654841996 -0.014226127270762497 -0.010706251433163231 0.0021857106107935893
49200000.0 -0.010659657708585792 0.0024218012337631845 0.9812996224152737 -0.015809706038365855 0.9812996224152737 -0.015809706038365855 -0.010659657708585792 0.002421801233763186
54100000.0 -0.010608461539123013 0.002656147680711505 0.9813574976952468 -0.017396380283841006 0.9813574976952468 -0.017396380283841006 -0.010608461539123013 0.002656147680711506
59000000.0 -0.01055274821527413 0.0028885873056877158 0.981420263331784 -0.018986429233535204 0.9814202633317838 -0.0189864292335352 -0.01055274821527413 0.0028885873056877166
63900000.0 -0.010492599511169478 0.0031189693648112395 0.9814877501416989 -0.02058012298988763 0.9814877501416989 -0.02058012298988763 -0.010492599511169478 0.0031189693648112395
68800000.0 -0.010428112659555221 0.0033471483005887027 0.9815597937687761 -0.022177726890919118 0.9815597937687759 -0.02217772689091911 -0.010428112659555221 0.0033471483005887005
73700000.0 -0.01035938977402159 0.003572978478924437 0.9816361871327817 -0.02377948722696905 0.9816361871327814 -0.02377948722696905 -0.01035938977402159 0.003572978478924438
78600000.0 -0.010286531393638325 0.0037963284101259365 0.9817167762989526 -0.025385660358603086 0.9817167762989529 -0.025385660358603096 -0.010286531393638325 0.0037963284101259344
83500000.0 -0.010209652314409297 0.004017059256526309 0.9818013397977875 -0.026996474778989532 0.9818013397977875 -0.026996474778989532 -0.010209652314409297 0.0040170592565263105
88400000.0 -0.010128865687957836 0.004235054532513499 0.9818896608778647 -0.02861215038000755 0.9818896608778644 -0.028612150380007546 -0.010128865687957836 0.0042350545325135006
93300000.0 -0.010044292609337082 0.004450186371585463 0.9819815048061857 -0.030232913457413798 0.9819815048061855 -0.03023291345741379 -0.010044292609337082 0.00445018637158546
98200000.0 -0.009956055265130782 0.004662349187658003 0.9820766835132076 -0.03185894211498199 0.9820766835132073 -0.031858942114981983 -0.009956055265130782 0.0046623491876580025
103100000.0 -0.009864281853559384 0.004871432767923246 0.9821749473630976 -0.03349044900324605 0.9821749473630974 -0.03349044900324605 -0.009864281853559384 0.004871432767923247
108000000.0 -0.00976910228486449 0.005077337951854207 0.982276046686254 -0.035127604928052725 0.982276046686254 -0.035127604928052725 -0.00976910228486449 0.005077337951854204
112900000.0 -0.009670650655822935 0.005279969851191674 0.9823797367048569 -0.036770585006642854 0.9823797367048569 -0.036770585006642854 -0.009670650655822935 0.005279969851191678
117800000.0 -0.009569063286862935 0.005479243374815314 0.9824857746775684 -0.03841954559216015 0.9824857746775684 -0.03841954559216015 -0.009569063286862935 0.005479243374815309
122700000.0 -0.009464474444391234 0.0056750794693862985 0.9825938966773652 -0.04007462798729947 0.9825938966773654 -0.04007462798729948 -0.009464474444391234 0.0056750794693863
127600000.0 -0.009357029383296873 0.005867401597457436 0.9827038132860365 -0.041735936261128016 0.9827038132860367 -0.04173593626112803 -0.009357029383296873 0.005867401597457439
132500000.0 -0.009246864092017125 0.006056144299384696 0.9828153188399238 -0.04340363751237825 0.9828153188399241 -0.04340363751237827 -0.009246864092017125 0.006056144299384699
137400000.0 -0.009134119793690845 0.006241247682632143 0.9829281296145942 -0.04507782294610011 0.9829281296145939 -0.045077822946100105 -0.009134119793690845 0.006241247682632138
142300000.0 -0.009018942690073225 0.006422656282785979 0.9830419390551802 -0.04675857079667607 0.9830419390551806 -0.04675857079667608 -0.009018942690073225 0.0064226562827859775
147200000.0 -0.008901471825131716 0.00660032660095952 0.9831565167816134 -0.048445976235119016 0.9831565167816134 -0.048445976235119016 -0.008901471825131716 0.006600326600959518
152100000.0 -0.00878185122554206 0.006774212795626865 0.9832715867490692 -0.05014012513718559 0.9832715867490691 -0.05014012513718558 -0.00878185122554206 0.006774212795626867
157000000.0 -0.008660221069967137 0.006944281763984593 0.9833868685672114 -0.05184106419634151 0.9833868685672112 -0.0518410641963415 -0.008660221069967137 0.006944281763984588
161900000.0 -0.008536724825039988 0.007110505618835151 0.9835020849538328 -0.053548846410929336 0.9835020849538325 -0.053548846410929316 -0.008536724825039988 0.007110505618835153
166800000.0 -0.008411498340699756 0.007272860027211071 0.9836170071103317 -0.05526352219417921 0.9836170071103317 -0.05526352219417921 -0.008411498340699755 0.007272860027211074
171700000.0 -0.008284684724926694 0.007431328111742693 0.9837313325484058 -0.05698511652653354 0.9837313325484057 -0.056985116526533534 -0.008284684724926694 0.0074313281117426916
176600000.0 -0.008156419217953141 0.007585897088842533 0.983844801665569 -0.058713629862540716 0.983844801665569 -0.058713629862540716 -0.008156419217953141 0.007585897088842531
181500000.0 -0.008026834400029383 0.007736564246792854 0.983957179545499 -0.060449064141622585 0.983957179545499 -0.060449064141622585 -0.008026834400029383 0.00773656424679285
186400000.0 -0.007896067826459382 0.00788332611655713 0.9840681662813705 -0.06219144291411892 0.9840681662813708 -0.06219144291411893 -0.007896067826459382 0.007883326116557132
191300000.0 -0.007764248964263293 0.008026182546807892 0.9841775263559907 -0.06394075960382617 0.9841775263559904 -0.06394075960382616 -0.007764248964263293 0.008026182546807896
196200000.0 -0.0076315077411554895 0.00816514688775357 0.9842850155225844 -0.0656969694794163 0.9842850155225844 -0.0656969694794163 -0.0076315077411554895 0.008165146887753572
201100000.0 -0.007497965958139318 0.008300232472293424 0.9843903905378598 -0.06746003506935547 0.9843903905378596 -0.06746003506935547 -0.007497965958139318 0.008300232472293423
206000000.0 -0.00736375061253798 0.008431453318298743 0.9844933649064882 -0.06922993724914404 0.9844933649064882 -0.06922993724914404 -0.00736375061253798 0.008431453318298738
210900000.0 -0.007228979434773453 0.008558832571086604 0.9845937583987009 -0.0710066138987949 0.9845937583987009 -0.0710066138987949 -0.007228979434773453 0.008558832571086606
215800000.0 -0.007093772748785187 0.00868239610797878 0.9846913030583273 -0.07279003258111494 0.9846913030583276 -0.07279003258111497 -0.007093772748785187 0.008682396107978775
220700000.0 -0.00695824451802537 0.00880216828047307 0.9847857855192256 -0.0745801069305592 0.9847857855192252 -0.07458010693055918 -0.006958244518025371 0.00880216828047306
225600000.0 -0.006822501211434382 0.008918188624311846 0.9848769706772277 -0.07637676381550425 0.9848769706772279 -0.07637676381550426 -0.006822501211434382 0.008918188624311848
230500000.0 -0.006686655885420606 0.009030484396404113 0.9849646509099474 -0.07817995306762063 0.9849646509099473 -0.07817995306762061 -0.006686655885420606 0.009030484396404108
235400000.0 -0.006550809184578652 0.009139099554262802 0.9850486217108686 -0.07998955984031202 0.9850486217108683 -0.079989559840312 -0.006550809184578652 0.009139099554262795
240300000.0 -0.0064150645742162395 0.009244073208077538 0.9851286618695871 -0.08180550479680063 0.9851286618695876 -0.08180550479680067 -0.0064150645742162395 0.00924407320807754
245200000.0 -0.006279518844620474 0.009345447742008841 0.9852045930024543 -0.08362770270143832 0.9852045930024547 -0.08362770270143834 -0.006279518844620474 0.00934544774200884
250100000.0 -0.006144264677107686 0.009443269196076137 0.9852762004543819 -0.08545603885456059 0.9852762004543817 -0.08545603885456056 -0.006144264677107686 0.009443269196076144
255000000.0 -0.0060093949523366726 0.009537587753773592 0.9853432965748818 -0.08729042058467887 0.9853432965748815 -0.08729042058467884 -0.006009394952336673 0.009537587753773585
259900000.0 -0.005874993849357068 0.00962845099215223 0.9854057280008438 -0.08913072668982094 0.985405728000844 -0.08913072668982096 -0.005874993849357068 0.009628450992152232
264800000.0 -0.005741145404981437 0.009715908209478107 0.9854633177807273 -0.09097684958560512 0.9854633177807269 -0.09097684958560509 -0.005741145404981437 0.009715908209478114
269700000.0 -0.0056079332903557705 0.009800017484585078 0.9855158798435296 -0.09282866722326039 0.98551587984353 -0.0928286672232604 -0.0056079332903557705 0.009800017484585078
274600000.0 -0.0054754303444273554 0.009880830012750724 0.9855632680180761 -0.09468605001709679 0.9855632680180761 -0.09468605001709679 -0.0054754303444273554 0.009880830012750728
279500000.0 -0.005343710984884382 0.00995839963293936 0.9856053411425272 -0.09654889572054973 0.9856053411425275 -0.09654889572054974 -0.005343710984884384 0.009958399632939355
284400000.0 -0.005212845484094788 0.01003278653704838 0.9856419323607948 -0.09841704504316924 0.9856419323607947 -0.09841704504316923 -0.005212845484094788 0.010032786537048387
289300000.0 -0.005082901803070547 0.010104046995271744 0.9856728950703642 -0.10029040888207229 0.9856728950703638 -0.10029040888207225 -0.005082901803070547 0.01010404699527174
294200000.0 -0.004953941072619081 0.010172234354178288 0.98569812698965 -0.10216883825466587 0.9856981269896498 -0.10216883825466584 -0.0049539410726190825 0.010172234354178284
299100000.0 -0.004826023909382526 0.01023741282670715 0.9857174848114313 -0.10405215602046118 0.9857174848114313 -0.10405215602046118 -0.0048260239093825255 0.010237412826707154
304000000.0 -0.004699208698152947 0.010299638777114161 0.9857308333174716 -0.10594028336472863 0.9857308333174718 -0.10594028336472867 -0.004699208698152946 0.010299638777114165
308900000.0 -0.0045735493056757726 0.010358970139445388 0.9857380802274144 -0.10783308042490182 0.9857380802274146 -0.10783308042490183 -0.0045735493056757726 0.010358970139445393
313800000.0 -0.004449095292596317 0.0104154667142949 0.9857391118723463 -0.10973037126518428 0.9857391118723463 -0.10973037126518428 -0.004449095292596318 0.01041546671429489
318700000.0 -0.004325896752133131 0.010469190568158303 0.9857338067709374 -0.11163203569717267 0.9857338067709374 -0.11163203569717267 -0.00432589675213313 0.010469190568158308
323600000.0 -0.004203996433475838 0.010520196468334532 0.9857220920787483 -0.1135379121660101 0.9857220920787483 -0.1135379121660101 -0.0042039964334758375 0.010520196468334537
328500000.0 -0.004083440190391573 0.010568546770895304 0.9857038676561557 -0.11544790266289345 0.9857038676561557 -0.11544790266289345 -0.004083440190391573 0.010568546770895304
333400000.0 -0.0039642660133736235 0.010614297344789466 0.9856790723823309 -0.11736184617278828 0.9856790723823309 -0.11736184617278828 -0.0039642660133736235 0.010614297344789466
338300000.0 -0.003846511198661191 0.01065750777148558 0.9856475698842229 -0.1192795938702356 0.9856475698842232 -0.11927959387023562 -0.0038465111986611925 0.010657507771485572
343200000.0 -0.0037302105794923836 0.010698236245572885 0.9856093389852234 -0.12120099602439578 0.9856093389852236 -0.12120099602439582 -0.0037302105794923836 0.010698236245572885
348100000.0 -0.003615398799748681 0.010736541987764626 0.9855642930270345 -0.1231259349683865 0.9855642930270347 -0.12312593496838654 -0.0036153987997486797 0.010736541987764634
353000000.0 -0.00350210261252599 0.01077247645441007 0.9855123710986982 -0.1250542584842599 0.985512371098698 -0.12505425848425988 -0.003502102612525989 0.010772476454410079
357900000.0 -0.0033903519207222413 0.0108061008218974 0.9854535073368256 -0.12698581834781633 0.9854535073368258 -0.1269858183478164 -0.0033903519207222413 0.010806100821897396
362800000.0 -0.0032801732903749623 0.010837468003824336 0.9853876503843956 -0.12892051039390126 0.9853876503843954 -0.12892051039390123 -0.0032801732903749636 0.010837468003824327
367700000.0 -0.0031715881651039352 0.010866633112813447 0.9853147537620184 -0.13085815459198036 0.9853147537620184 -0.13085815459198036 -0.003171588165103936 0.010866633112813443
372600000.0 -0.003064619597655388 0.010893648520489595 0.9852347954572445 -0.13279863360865718 0.9852347954572445 -0.13279863360865718 -0.003064619597655388 0.010893648520489595
377500000.0 -0.0029592871029686875 0.010918566912348085 0.9851476885626629 -0.13474181471008675 0.9851476885626632 -0.13474181471008678 -0.0029592871029686875 0.010918566912348085
382400000.0 -0.0028556079289685206 0.010941444755670753 0.9850534298753069 -0.13668754706160705 0.9850534298753068 -0.13668754706160702 -0.0028556079289685198 0.010941444755670757
387300000.0 -0.0027535991080266968 0.010962327875934652 0.9849520011421722 -0.13863571220455656 0.9849520011421722 -0.13863571220455656 -0.002753599108026698 0.010962327875934643
392200000.0 -0.0026532760592427045 0.010981268639071494 0.9848433491475412 -0.14058618579445406 0.9848433491475412 -0.14058618579445406 -0.0026532760592427045 0.010981268639071498
397100000.0 -0.0025546512722061897 0.010998318212434086 0.9847274539820862 -0.1425388251511335 0.9847274539820862 -0.1425388251511335 -0.002554651272206188 0.010998318212434095
402000000.0 -0.002457733443862385 0.011013520069722615 0.9846043087689016 -0.14449347914874813 0.9846043087689016 -0.14449347914874813 -0.002457733443862385 0.011013520069722615
406900000.0 -0.002362537579443842 0.01102692370166131 0.984473885042017 -0.1464500592164289 0.9844738850420167 -0.14645005921642884 -0.00236253757944384 0.011026923701661319
411800000.0 -0.0022690694524121397 0.011038573275406883 0.9843361763269871 -0.14840843794492167 0.9843361763269871 -0.14840843794492167 -0.0022690694524121397 0.011038573275406883
416700000.0 -0.0021773374649034683 0.01104851850645802 0.9841911782156607 -0.15036845945396246 0.9841911782156604 -0.1503684594539624 -0.002177337464903469 0.011048518506458015
421600000.0 -0.0020873462998366584 0.01105679823031421 0.9840388838356435 -0.1523300190746375 0.9840388838356432 -0.15233001907463747 -0.002087346299836661 0.011056798230314193
426500000.0 -0.001999101290105606 0.01106345643474419 0.9838792814899087 -0.15429301395181827 0.9838792814899089 -0.15429301395181833 -0.0019991012901056054 0.011063456434744195
431400000.0 -0.0019126103790695708 0.011068536214697514 0.983712391724305 -0.15625731929353942 0.983712391724305 -0.15625731929353942 -0.0019126103790695688 0.011068536214697527
436300000.0 -0.0018278722038055641 0.011072077594934294 0.9835381681215533 -0.15822279851190746 0.9835381681215533 -0.15822279851190746 -0.0018278722038055672 0.011072077594934277
441200000.0 -0.0017448887121900237 0.011074117078556473 0.9833566925161578 -0.16018936141700477 0.9833566925161575 -0.16018936141700474 -0.0017448887121900216 0.011074117078556486
446100000.0 -0.0016636651052437314 0.011074699728801082 0.983167907594683 -0.16215687406219748 0.983167907594683 -0.16215687406219748 -0.0016636651052437334 0.01107469972880107
451000000.0 -0.0015841964844333365 0.011073857001320327 0.9829718537086227 -0.16412524164783793 0.9829718537086231 -0.16412524164783795 -0.0015841964844333356 0.011073857001320332
455900000.0 -0.0015064848117631983 0.011071627979493941 0.9827685540310247 -0.16609435114852164 0.9827685540310245 -0.16609435114852159 -0.0015064848117631968 0.01107162797949395
460800000.0 -0.0014305316316400982 0.011068045003672845 0.9825580205098785 -0.1680641207105992 0.9825580205098788 -0.16806412071059926 -0.0014305316316400982 0.011068045003672845
465700000.0 -0.0013563299405628766 0.011063145814430013 0.9823402403002723 -0.17003440303055833 0.9823402403002727 -0.17003440303055842 -0.0013563299405628766 0.011063145814430013
470600000.0 -0.0012838809834679861 0.011056959277229923 0.9821152759667948 -0.1720051283640939 0.982115275966795 -0.17200512836409398 -0.0012838809834679874 0.011056959277229914
475500000.0 -0.0012131782677705836 0.011049522739654991 0.9818830984353597 -0.17397618146623642 0.9818830984353596 -0.1739761814662364 -0.0012131782677705866 0.011049522739654974
480400000.0 -0.001144221691496983 0.011040863709202715 0.9816437781326841 -0.17594747990361997 0.9816437781326843 -0.17594747990362003 -0.001144221691496984 0.011040863709202712
485300000.0 -0.0010770069544255518 0.011031011727959353 0.9813973366848786 -0.17791891840094537 0.9813973366848788 -0.17791891840094542 -0.0010770069544255526 0.011031011727959348
490200000.0 -0.0010115251281978845 0.01101999901534773 0.9811437728908955 -0.17989040547319937 0.9811437728908954 -0.17989040547319934 -0.001011525128197882 0.011019999015347743
495100000.0 -0.0009477778507292163 0.01100784882704405 0.980883142015223 -0.18186185775682204 0.980883142015223 -0.18186185775682204 -0.0009477778507292179 0.011007848827044042
500000000.0 -0.0008857527351401478 0.010994594226575827 0.9806154502163162 -0.18383317074353855 0.9806154502163162 -0.18383317074353855 -0.0008857527351401478 0.010994594226575827
