! Created with skrf 2.1.0 (http://scikit-rf.org).
# Hz S RI R 50.0 
!freq ReS11 ImS11 ReS21 ImS21 ReS12 ImS12 ReS22 ImS22
10000000.0 -0.009290145922363829 0.0004201227922330261 0.9838432581927518 -0.0027296265634040267 0.9838432581927521 -0.002729626563404028 -0.009290145922363829 0.0004201227922330258
14900000.0 -0.009279543602869861 0.0006255898642026036 0.9838565684541412 -0.004067838535127979 0.9838565684541412 -0.004067838535127979 -0.009279543602869861 0.0006255898642026039
19800000.0 -0.009264798301906123 0.0008305938969704231 0.9838750458056017 -0.005406870350647251 0.9838750458056016 -0.005406870350647249 -0.009264798301906123 0.0008305938969704228
24700000.0 -0.009245928011059357 0.0010349842788507833 0.9838986885971549 -0.006746986017422705 0.9838986885971546 -0.006746986017422702 -0.009245928011059357 0.001034984278850783
29600000.0 -0.009222967626028854 0.0012386124430311747 0.9839274008781089 -0.008088454502175301 0.9839274008781089 -0.008088454502175301 -0.009222967626028854 0.0012386124430311747
34500000.0 -0.009195954560966191 0.0014413312377505336 0.9839611509456379 -0.009431529951883393 0.9839611509456375 -0.00943152995188339 -0.009195954560966191 0.0014413312377505331
39400000.0 -0.009164932441505045 0.0016429964226345151 0.9839998330098563 -0.010776472209389622 0.9839998330098559 -0.010776472209389617 -0.009164932441505045 0.0016429964226345151
44300000.0 -0.009129954988658729 0.0018434656224868475 0.9840433657154526 -0.012123533660674883 0.9840433657154526 -0.012123533660674883 -0.009129954988658729 0.0018434656224868475
49200000.0 -0.009091075687230553 0.0020425989997579484 0.9840916527050547 -0.013472958925367285 0.9840916527050546 -0.013472958925367283 -0.009091075687230553 0.0020425989997579484
54100000.0 -0.009048358851123381 0.0022402648412850825 0.9841445626468291 -0.014824990244925713 0.9841445626468289 -0.014824990244925711 -0.009048358851123381 0.002240264841285083
59000000.0 -0.009001876489071735 0.002436326339415799 0.9842019883671085 -0.016179862686790586 0.9842019883671085 -0.016179862686790586 -0.009001876489071735 0.0024363263394157997
63900000.0 -0.008951697604696966 0.002630656846257812 0.9842637877621577 -0.017537803689777545 0.9842637877621576 -0.01753780368977754 -0.008951697604696966 0.002630656846257812
68800000.0 -0.008897904297188439 0.0028231340808534703 0.9843298230037499 -0.018899036689218485 0.9843298230037499 -0.018899036689218485 -0.008897904297188439 0.002823134080853469
73700000.0 -0.008840582787905582 0.003013635700562715 0.9843999199773399 -0.020263769092898617 0.9843999199773399 -0.020263769092898617 -0.008840582787905582 0.003013635700562715
78600000.0 -0.00877981784319044 0.0032020513606015985 0.9844739500913203 -0.021632216809255384 0.9844739500913199 -0.021632216809255374 -0.00877981784319044 0.0032020513606015985
83500000.0 -0.008715706348813473 0.003388264446149719 0.984551727269499 -0.02300457230021031 0.9845517272694992 -0.023004572300210312 -0.008715706348813473 0.0033882644461497168
88400000.0 -0.00864834376372841 0.003572177375337184 0.9846330696186189 -0.024381020771483825 0.9846330696186187 -0.02438102077148382 -0.00864834376372841 0.003572177375337185
93300000.0 -0.008577832217181704 0.003753682804766881 0.984717780107729 -0.025761753083878035 0.984717780107729 -0.025761753083878035 -0.008577832217181704 0.003753682804766881
98200000.0 -0.00850427467653827 0.003932692374480247 0.9848057014745426 -0.027146918934185804 0.9848057014745426 -0.027146918934185804 -0.00850427467653827 0.003932692374480246
103100000.0 -0.008427779229178653 0.004109113703314436 0.9848966242799257 -0.028536697824442552 0.9848966242799255 -0.02853669782444255 -0.008427779229178653 0.004109113703314439
108000000.0 -0.008348455355780146 0.004282863832395064 0.9849903390581951 -0.02993123372429149 0.9849903390581948 -0.029931233724291482 -0.008348455355780146 0.004282863832395065
112900000.0 -0.008266416034084399 0.0044538633686278745 0.9850866406888277 -0.03133067439183238 0.9850866406888277 -0.03133067439183238 -0.008266416034084399 0.004453863368627874
117800000.0 -0.008181776083400748 0.004622041227498079 0.9851853258630117 -0.03273515171333787 0.9851853258630119 -0.032735151713337886 -0.008181776083400748 0.004622041227498078
122700000.0 -0.00809464853630876 0.004787331457834432 0.9852861733021766 -0.03414478499727659 0.9852861733021764 -0.03414478499727659 -0.00809464853630876 0.0047873314578344315
127600000.0 -0.008005155723827428 0.00494967020291246 0.9853889399413805 -0.03555966211593435 0.9853889399413805 -0.03555966211593435 -0.008005155723827428 0.004949670202912462
132500000.0 -0.00791341199978238 0.0051090028936900365 0.9854934545779745 -0.03697992435821023 0.9854934545779745 -0.03697992435821023 -0.00791341199978238 0.005109002893690032
137400000.0 -0.007819536174287475 0.0052652797618880165 0.9855994792242682 -0.03840564890838401 0.9855994792242682 -0.03840564890838401 -0.007819536174287475 0.005265279761888012
142300000.0 -0.007723651262902188 0.005418454748981859 0.9857067564784331 -0.03983690221897004 0.9857067564784335 -0.03983690221897005 -0.007723651262902188 0.005418454748981863
147200000.0 -0.0076258741006603875 0.005568491882258145 0.9858150940770815 -0.041273764898470996 0.9858150940770813 -0.04127376489847099 -0.0076258741006603875 0.005568491882258145
152100000.0 -0.007526325731392068 0.005715353135185179 0.9859242609074859 -0.04271631007996034 0.9859242609074857 -0.04271631007996033 -0.007526325731392068 0.005715353135185177
157000000.0 -0.0074251239024438875 0.0058590113317866606 0.9860340220296163 -0.044164577724805046 0.9860340220296163 -0.044164577724805046 -0.0074251239024438875 0.0058590113317866606
161900000.0 -0.00732238913280686 0.005999443628378975 0.9861441452886459 -0.045618613337225423 0.9861441452886462 -0.04561861333722543 -0.00732238913280686 0.005999443628378973
166800000.0 -0.007218235357161805 0.006136630138292189 0.9862544399250346 -0.04707846007575397 0.9862544399250343 -0.04707846007575396 -0.007218235357161804 0.006136630138292193
171700000.0 -0.007112782746739548 0.006270557285156678 0.9863646523124332 -0.04854414012573596 0.9863646523124332 -0.04854414012573596 -0.007112782746739548 0.0062705572851566764
176600000.0 -0.007006144671019254 0.006401214936615905 0.9864745652637513 -0.05001565468984206 0.9864745652637515 -0.05001565468984207 -0.007006144671019254 0.006401214936615903
181500000.0 -0.006898432230662709 0.006528601446459583 0.9865839827010311 -0.05149300623487435 0.9865839827010309 -0.05149300623487434 -0.00689843223066271 0.006528601446459581
186400000.0 -0.006789760801900851 0.006652714432256106 0.9866926534162579 -0.05297621633634629 0.9866926534162577 -0.052976216336346284 -0.006789760801900851 0.006652714432256106
191300000.0 -0.006680238751461697 0.006773554278521434 0.9868003808916223 -0.054465280620863095 0.9868003808916219 -0.05446528062086309 -0.006680238751461697 0.006773554278521433
196200000.0 -0.006569974877904733 0.006891132820388978 0.9869069609151361 -0.05596016246788896 0.9869069609151361 -0.05596016246788896 -0.006569974877904733 0.006891132820388978
201100000.0 -0.006459071027389014 0.007005461840309633 0.9870121902208043 -0.05746083164423109 0.9870121902208043 -0.05746083164423109 -0.006459071027389014 0.007005461840309628
206000000.0 -0.006347633505694649 0.0071165535906110924 0.9871158288946963 -0.058967274129112304 0.9871158288946966 -0.05896727412911232 -0.006347633505694649 0.0071165535906110924
210900000.0 -0.0062357606236596265 0.00722442801410766 0.9872177271911043 -0.060479438556303874 0.987217727191104 -0.06047943855630386 -0.006235760623659626 0.0072244280141076644
215800000.0 -0.006123553020002741 0.00732910732130436 0.9873176609365968 -0.06199729981537514 0.9873176609365966 -0.06199729981537513 -0.006123553020002741 0.00732910732130436
220700000.0 -0.006011105767411341 0.007430612376281068 0.9874154519617808 -0.06352078659132838 0.9874154519617808 -0.06352078659132838 -0.006011105767411341 0.007430612376281068
225600000.0 -0.005898507715388183 0.007528976960204005 0.9875109037202181 -0.0650498392437527 0.9875109037202178 -0.06504983924375268 -0.005898507715388183 0.007528976960204006
230500000.0 -0.005785853192636404 0.007624224182800158 0.9876038432712657 -0.06658441762701907 0.9876038432712657 -0.06658441762701907 -0.005785853192636404 0.007624224182800158
235400000.0 -0.005673226035120052 0.007716391456971441 0.9876940996980527 -0.0681244266843137 0.9876940996980527 -0.0681244266843137 -0.005673226035120052 0.0077163914569714385
240300000.0 -0.00556071248258964 0.007805511927619602 0.9877814881791249 -0.06966980196879502 0.9877814881791248 -0.06966980196879502 -0.00556071248258964 0.007805511927619606
245200000.0 -0.00544839307555276 0.007891621456157984 0.9878658602839402 -0.07122047376537051 0.9878658602839401 -0.0712204737653705 -0.00544839307555276 0.007891621456157983
250100000.0 -0.005336344892298651 0.007974759033256435 0.9879470363564029 -0.07277634785278868 0.9879470363564028 -0.07277634785278866 -0.005336344892298651 0.00797475903325643
255000000.0 -0.0052246452332444515 0.008054967031012427 0.9880248599312222 -0.07433734866931568 0.9880248599312222 -0.07433734866931568 -0.0052246452332444515 0.008054967031012435
259900000.0 -0.005113363906469253 0.008132285587210788 0.9880992033702195 -0.07590337617210575 0.9880992033702198 -0.07590337617210578 -0.005113363906469253 0.008132285587210788
264800000.0 -0.005002570664393642 0.008206756232290762 0.9881699190494709 -0.07747434234810596 0.9881699190494712 -0.07747434234810599 -0.00500257066439364 0.008206756232290769
269700000.0 -0.00489233505427121 0.008278427909160313 0.9882368513666708 -0.07905014715917859 0.9882368513666707 -0.07905014715917857 -0.00489233505427121 0.008278427909160313
274600000.0 -0.004782717296117235 0.008347343694158548 0.9882998785212125 -0.0806306838784148 0.9882998785212123 -0.08063068387841478 -0.004782717296117235 0.008347343694158545
279500000.0 -0.004673779035375594 0.008413548782948184 0.9883588832380411 -0.0822158691426307 0.9883588832380411 -0.0822158691426307 -0.004673779035375594 0.008413548782948184
284400000.0 -0.004565578438692357 0.0084770938209226 0.9884137256024659 -0.08380557151838972 0.9884137256024659 -0.08380557151838972 -0.004565578438692357 0.008477093820922606
289300000.0 -0.004458171755014608 0.008538025981781095 0.988464283733184 -0.08539971923766292 0.9884642837331838 -0.08539971923766289 -0.004458171755014608 0.008538025981781093
294200000.0 -0.004351609300367389 0.008596389944820216 0.9885104726330809 -0.08699818915677301 0.9885104726330811 -0.08699818915677303 -0.004351609300367387 0.008596389944820225
299100000.0 -0.004245941118457641 0.008652239640903513 0.9885521719169548 -0.08860083483876599 0.9885521719169547 -0.08860083483876598 -0.004245941118457641 0.008652239640903513
304000000.0 -0.004141215403257391 0.008705622191265505 0.9885892692843941 -0.09020759358711794 0.9885892692843937 -0.09020759358711793 -0.004141215403257391 0.00870562219126551
308900000.0 -0.004037476450045525 0.008756586028661585 0.9886216880873204 -0.09181835031302374 0.9886216880873209 -0.09181835031302378 -0.004037476450045525 0.008756586028661587
313800000.0 -0.003934764918341211 0.008805181213606343 0.9886493328646988 -0.09343295965536826 0.988649332864699 -0.09343295965536827 -0.00393476491834121 0.00880518121360635
318700000.0 -0.0038331220698078544 0.008851459632198137 0.9886721021722359 -0.09505132394072235 0.9886721021722359 -0.09505132394072235 -0.0038331220698078544 0.008851459632198137
323600000.0 -0.003732582765303431 0.0088954669566522 0.9886899352506816 -0.0966733097430289 0.9886899352506819 -0.09667330974302893 -0.00373258276530343 0.008895466956652205
328500000.0 -0.0036331847607910953 0.008937255207260237 0.9887027489365028 -0.09829883820248679 0.988702748936503 -0.09829883820248682 -0.0036331847607910944 0.008937255207260242
333400000.0 -0.0035349589604239387 0.00897687092199639 0.98871049223531 -0.09992777639696289 0.9887104922353099 -0.09992777639696288 -0.0035349589604239382 0.008976870921996399
338300000.0 -0.0034379358370180296 0.009014363843702975 0.9887130501843654 -0.10156000302041261 0.9887130501843654 -0.10156000302041261 -0.0034379358370180296 0.009014363843702978
343200000.0 -0.0033421437223579843 0.009049782362289184 0.9887104056908766 -0.10319539436365145 0.9887104056908766 -0.10319539436365145 -0.0033421437223579847 0.009049782362289179
348100000.0 -0.0032476109324654275 0.009083175757873813 0.9887024863315254 -0.10483385508261749 0.9887024863315254 -0.10483385508261749 -0.0032476109324654275 0.009083175757873811
353000000.0 -0.0031543589295000805 0.009114586758047544 0.9886892409263239 -0.10647526015021415 0.9886892409263239 -0.10647526015021415 -0.0031543589295000805 0.009114586758047544
357900000.0 -0.0030624120667669522 0.009144066271273277 0.9886706140256153 -0.10811948809726321 0.988670614025615 -0.10811948809726318 -0.003062412066766951 0.009144066271273286
362800000.0 -0.002971791825925973 0.009171658134596918 0.9886465631102992 -0.10976645479262093 0.988646563110299 -0.10976645479262091 -0.002971791825925974 0.00917165813459691
367700000.0 -0.002882515306628887 0.009197408130539137 0.9886170484473344 -0.11141601157065024 0.9886170484473344 -0.11141601157065024 -0.0028825153066288868 0.009197408130539143
372600000.0 -0.0027946010550791017 0.009221359573864548 0.9885820520159301 -0.11306806275154145 0.9885820520159301 -0.11306806275154145 -0.0027946010550791013 0.009221359573864552
377500000.0 -0.0027080646711881277 0.009243556163055671 0.9885415002258533 -0.1147225007319698 0.9885415002258536 -0.11472250073196982 -0.0027080646711881277 0.009243556163055671
382400000.0 -0.002622919874988964 0.009264044712159499 0.9884953902504025 -0.11637920115343006 0.9884953902504023 -0.11637920115343005 -0.0026229198749889646 0.009264044712159494
387300000.0 -0.0025391801209842064 0.009282862949548403 0.988443706881082 -0.11803806749502836 0.9884437068810817 -0.11803806749502835 -0.0025391801209842055 0.00928286294954841
392200000.0 -0.0024568576614701857 0.009300054217531295 0.9883864049665035 -0.11969899890292998 0.9883864049665035 -0.11969899890292998 -0.002456857661470187 0.009300054217531287
397100000.0 -0.002375962244269438 0.009315660821898993 0.9883234672292117 -0.1213618783990587 0.9883234672292117 -0.1213618783990587 -0.002375962244269438 0.009315660821898991
402000000.0 -0.0022965002805020625 0.009329718545551953 0.988254887171236 -0.1230265816322772 0.9882548871712359 -0.12302658163227717 -0.0022965002805020638 0.009329718545551946
406900000.0 -0.0022184838053523116 0.009342268153332974 0.9881806409734635 -0.12469303787477243 0.9881806409734639 -0.12469303787477247 -0.0022184838053523116 0.009342268153332974
411800000.0 -0.002141916882343713 0.009353346010747667 0.9881007226884551 -0.1263611430125981 0.9881007226884551 -0.1263611430125981 -0.0021419168823437144 0.009353346010747658
416700000.0 -0.0020668059263466744 0.00936299314321168 0.9880151274576483 -0.1280307687040263 0.9880151274576483 -0.1280307687040263 -0.0020668059263466744 0.00936299314321168
421600000.0 -0.0019931540986065028 0.009371241347095173 0.9879238491622689 -0.12970183023746268 0.9879238491622689 -0.12970183023746268 -0.0019931540986065028 0.009371241347095173
426500000.0 -0.001920965262649698 0.009378126780179961 0.9878268775216649 -0.13137424456162963 0.9878268775216651 -0.13137424456162966 -0.0019209652626496975 0.009378126780179966
431400000.0 -0.0018502454917709763 0.009383684732999647 0.9877242291269189 -0.13304790935063865 0.9877242291269192 -0.13304790935063868 -0.0018502454917709756 0.009383684732999654
436300000.0 -0.0017809929305661006 0.009387948148575503 0.9876158632656942 -0.13472271362389704 0.987615863265694 -0.134722713623897 -0.0017809929305661013 0.009387948148575498
441200000.0 -0.0017132085331758853 0.009390946697326399 0.987501849085832 -0.13639858326973406 0.9875018490858323 -0.1363985832697341 -0.0017132085331758842 0.009390946697326407
446100000.0 -0.00164689623155157 0.009392717465400033 0.9873821364333725 -0.13807540980188437 0.9873821364333722 -0.13807540980188437 -0.0016468962315515704 0.009392717465400031
451000000.0 -0.0015820511446364026 0.009393286001960951 0.987256758866348 -0.13975311604809992 0.987256758866348 -0.13975311604809992 -0.0015820511446364028 0.00939328600196095
455900000.0 -0.00151867441254087 0.009392684227779032 0.9871257348598651 -0.14143160967061844 0.987125734859865 -0.14143160967061844 -0.00151867441254087 0.009392684227779032
460800000.0 -0.0014567667671067975 0.0093909383264682 0.9869890738945708 -0.14311082506827952 0.9869890738945706 -0.1431108250682795 -0.0014567667671067975 0.0093909383264682
465700000.0 -0.0013963217360302438 0.009388079309769282 0.9868467628692281 -0.14479064155394866 0.9868467628692281 -0.14479064155394866 -0.0013963217360302448 0.009388079309769275
470600000.0 -0.0013373398022448833 0.009384130320201852 0.9866988543407137 -0.1464710027253963 0.9866988543407137 -0.1464710027253963 -0.0013373398022448822 0.009384130320201859
475500000.0 -0.001279815051116103 0.00937912202659032 0.9865453218865666 -0.1481518155084925 0.9865453218865665 -0.1481518155084925 -0.001279815051116103 0.00937912202659032
480400000.0 -0.0012237468465409805 0.009373076426113434 0.9863862242775925 -0.14983301250564038 0.9863862242775928 -0.1498330125056404 -0.0012237468465409805 0.009373076426113434
485300000.0 -0.0011691310422596028 0.009366017411477247 0.9862215781944403 -0.15151450796453242 0.9862215781944402 -0.1515145079645324 -0.0011691310422596013 0.009366017411477256
490200000.0 -0.0011159596758693944 0.009357971286831506 0.9860513811292018 -0.15319622837944097 0.9860513811292018 -0.15319622837944097 -0.001115959675869396 0.009357971286831497
495100000.0 -0.001064233605853942 0.009348956399682265 0.9858756786519769 -0.15487810582584402 0.9858756786519769 -0.15487810582584402 -0.0010642336058539414 0.00934895639968227
500000000.0 -0.0010139419970603904 0.009338999844762382 0.9856944740209558 -0.15656005554033672 0.9856944740209557 -0.1565600555403367 -0.0010139419970603926 0.00933899984476237
